Cs4 Pb4 I12                             
   1.00000000000000     
    17.7788829803000006    0.0000000000000000    0.0000000000000000
     0.0000000000000000   17.9504604340000000    0.0000000000000000
     0.0000000000000000    0.0000000000000000   12.7661609649999992
   Cs   Pb   I    N 
    16    16    48     1
Direct
  0.4979133659771031  0.4739167423723363  0.2569012106000622
  0.4968843246423784  0.9732144978804290  0.2480440591274759
  0.9965924252716769  0.4732298660691981  0.2479932712540179
  0.9966961849552823  0.9731198489612016  0.2485567234559551
  0.0033038332853582  0.0268800451355426  0.7514433141298600
  0.0034075296933205  0.5267700473300272  0.7520067704683806
  0.5031157005029392  0.0267854511008927  0.7519559847316767
  0.5020865081402386  0.5260867770078611  0.7430965891571523
  0.2474680263082398  0.2767252005709318  0.7512370984299639
  0.2469463847904444  0.7766584298438308  0.7519884610161429
  0.7482833640262824  0.2757243678384854  0.7552693778060267
  0.7468512020910590  0.7767698262319884  0.7513981063932872
  0.2531488428414875  0.2232300981721617  0.2486019399644489
  0.2517165528533435  0.7242756025451544  0.2447305439473690
  0.7530536050333431  0.2233415655872178  0.2480116261750386
  0.7525319979922523  0.7232747152630937  0.2487629600489694
  0.2503746861046513  0.0001125595393834 -0.0000185059864602
  0.2506192121445386  0.4998961088092854  0.0004316656699091
  0.7496252085060261 -0.0001126791253723  0.0000185104362440
  0.7493808812562279  0.5001037793514825 -0.0004312192870244
  0.0001718430899419  0.2502685502924101  0.0001033742293704
 -0.0001718751789990  0.7497313343479209 -0.0001033714921897
  0.4999523718059807  0.2508306033981872  0.0001723776006590
  0.5000476530148504  0.7491692254740938 -0.0001722754674160
  0.2502325045307034 -0.0008136477810438  0.4998067211526914
  0.2481645765984209  0.4968794206961317  0.5004522408423688
  0.7497674492957259  0.0008136222885181  0.5001933626887034
  0.7518351580065696  0.5031202149585111  0.4995477437071045
 -0.0009348726878139  0.2498341149313253  0.4997816376606285
  0.0009347910867781  0.7501657634515068  0.5002184084081090
  0.4971467537121494  0.2482368897327189  0.4986264390449088
  0.5028535106359389  0.7517632760773456  0.5013735954300401
  0.0319695848355753  0.2563662572735555  0.2500755752807567
  0.0319838659107577  0.7563828365613228  0.2500627957188805
  0.5319930111156740  0.2535412175898130  0.2496974406641710
  0.5310835474822412  0.7567575102936929  0.2507650266881326
  0.4689164364205357  0.2432424112825049  0.7492350548699312
  0.4680070160814488  0.7464584807359511  0.7503025635990362
  0.9680161297033808  0.2436170929947174  0.7499372444615652
  0.9680304357055413  0.7436336708652723  0.7499244638307073
  0.2785041278086299  0.4938824491221203  0.7501568952037360
  0.2819708340279845  0.9935682918685868  0.7498950901923771
  0.7819584692802343  0.4927896043718689  0.7492212570832378
  0.7821700989167066  0.9937066271762406  0.7499557706976234
  0.2178299108753344  0.0062932829482387  0.2500442684523503
  0.2180415330276781  0.5072103528740730  0.2507788182454962
  0.7180291801876061  0.0064316261173146  0.2501049558357606
  0.7214961607207384  0.5061175113267784  0.2498431179375769
  0.4013490548934698  0.0990303808906077  0.0316735944829474
  0.3992147099351752  0.6011260524269478  0.0333796481806091
  0.9014648132697162  0.0990714233782399  0.0317465757941987
  0.9016192975255981  0.5990775084858733  0.0311871712024999
  0.0983807186558928  0.4009224258667872  0.9688128295961785
  0.0985351949893476  0.9009285037463197  0.9682534878236089
  0.6007852298449280  0.3988739920160491  0.9666198573024967
  0.5986509501145174  0.9009695466547241  0.9683264703167382
  0.1514272438379116  0.1509398134197500  0.9679982863241036
  0.1510405126957877  0.6509252277434524  0.9683376320241909
  0.6512839891412875  0.1504195291629958  0.9683853567159678
  0.6525489671972322  0.6519798113377889  0.9697555423381885
  0.3474509773654281  0.3480200582928111  0.0302444041036393
  0.3487160254803740  0.8495803993522479  0.0316146799693281
  0.8489595097044482  0.3490746852452672  0.0316624174185620
  0.8485727620780039  0.8490601208105686  0.0320017563309009
  0.0981263519060490  0.4018381714118558  0.5317202544911613
  0.0978961236306086  0.9013274705716618  0.5322944286675756
  0.5943387177052805  0.4043213117571113  0.5230980471217430
  0.5981951809768835  0.9019414185550411  0.5321155381576778
  0.4018047518423796  0.0980584332412400  0.4678844760126493
  0.4056621802348058  0.5956777737664661  0.4769026054732414
  0.9021038765311645  0.0986724189194373  0.4677055830308150
  0.9018737077609948  0.5981618279766544  0.4682798306437401
  0.3447259726744547  0.3453514877134889  0.4702155472499659
  0.3479690858777262  0.8462553899639110  0.4680108121070491
  0.8460060478091270  0.3484854659535598  0.4698619975234744
  0.8489982371366384  0.8495904365346502  0.4680791099351873
  0.1510018006304980  0.1504094703874171  0.5319209373275335
  0.1539940622083514  0.6515144309561075  0.5301380186999424
  0.6520309558426276  0.1537444130548882  0.5319892148478356
  0.6552739151314070  0.6546484365669671  0.5297845599165103
  0.4999990509453868  0.5000009960842743  0.5000002647649273
 
  0.00000000E+00  0.00000000E+00  0.00000000E+00
  0.00000000E+00  0.00000000E+00  0.00000000E+00
  0.00000000E+00  0.00000000E+00  0.00000000E+00
  0.00000000E+00  0.00000000E+00  0.00000000E+00
  0.00000000E+00  0.00000000E+00  0.00000000E+00
  0.00000000E+00  0.00000000E+00  0.00000000E+00
  0.00000000E+00  0.00000000E+00  0.00000000E+00
  0.00000000E+00  0.00000000E+00  0.00000000E+00
  0.00000000E+00  0.00000000E+00  0.00000000E+00
  0.00000000E+00  0.00000000E+00  0.00000000E+00
  0.00000000E+00  0.00000000E+00  0.00000000E+00
  0.00000000E+00  0.00000000E+00  0.00000000E+00
  0.00000000E+00  0.00000000E+00  0.00000000E+00
  0.00000000E+00  0.00000000E+00  0.00000000E+00
  0.00000000E+00  0.00000000E+00  0.00000000E+00
  0.00000000E+00  0.00000000E+00  0.00000000E+00
  0.00000000E+00  0.00000000E+00  0.00000000E+00
  0.00000000E+00  0.00000000E+00  0.00000000E+00
  0.00000000E+00  0.00000000E+00  0.00000000E+00
  0.00000000E+00  0.00000000E+00  0.00000000E+00
  0.00000000E+00  0.00000000E+00  0.00000000E+00
  0.00000000E+00  0.00000000E+00  0.00000000E+00
  0.00000000E+00  0.00000000E+00  0.00000000E+00
  0.00000000E+00  0.00000000E+00  0.00000000E+00
  0.00000000E+00  0.00000000E+00  0.00000000E+00
  0.00000000E+00  0.00000000E+00  0.00000000E+00
  0.00000000E+00  0.00000000E+00  0.00000000E+00
  0.00000000E+00  0.00000000E+00  0.00000000E+00
  0.00000000E+00  0.00000000E+00  0.00000000E+00
  0.00000000E+00  0.00000000E+00  0.00000000E+00
  0.00000000E+00  0.00000000E+00  0.00000000E+00
  0.00000000E+00  0.00000000E+00  0.00000000E+00
  0.00000000E+00  0.00000000E+00  0.00000000E+00
  0.00000000E+00  0.00000000E+00  0.00000000E+00
  0.00000000E+00  0.00000000E+00  0.00000000E+00
  0.00000000E+00  0.00000000E+00  0.00000000E+00
  0.00000000E+00  0.00000000E+00  0.00000000E+00
  0.00000000E+00  0.00000000E+00  0.00000000E+00
  0.00000000E+00  0.00000000E+00  0.00000000E+00
  0.00000000E+00  0.00000000E+00  0.00000000E+00
  0.00000000E+00  0.00000000E+00  0.00000000E+00
  0.00000000E+00  0.00000000E+00  0.00000000E+00
  0.00000000E+00  0.00000000E+00  0.00000000E+00
  0.00000000E+00  0.00000000E+00  0.00000000E+00
  0.00000000E+00  0.00000000E+00  0.00000000E+00
  0.00000000E+00  0.00000000E+00  0.00000000E+00
  0.00000000E+00  0.00000000E+00  0.00000000E+00
  0.00000000E+00  0.00000000E+00  0.00000000E+00
  0.00000000E+00  0.00000000E+00  0.00000000E+00
  0.00000000E+00  0.00000000E+00  0.00000000E+00
  0.00000000E+00  0.00000000E+00  0.00000000E+00
  0.00000000E+00  0.00000000E+00  0.00000000E+00
  0.00000000E+00  0.00000000E+00  0.00000000E+00
  0.00000000E+00  0.00000000E+00  0.00000000E+00
  0.00000000E+00  0.00000000E+00  0.00000000E+00
  0.00000000E+00  0.00000000E+00  0.00000000E+00
  0.00000000E+00  0.00000000E+00  0.00000000E+00
  0.00000000E+00  0.00000000E+00  0.00000000E+00
  0.00000000E+00  0.00000000E+00  0.00000000E+00
  0.00000000E+00  0.00000000E+00  0.00000000E+00
  0.00000000E+00  0.00000000E+00  0.00000000E+00
  0.00000000E+00  0.00000000E+00  0.00000000E+00
  0.00000000E+00  0.00000000E+00  0.00000000E+00
  0.00000000E+00  0.00000000E+00  0.00000000E+00
  0.00000000E+00  0.00000000E+00  0.00000000E+00
  0.00000000E+00  0.00000000E+00  0.00000000E+00
  0.00000000E+00  0.00000000E+00  0.00000000E+00
  0.00000000E+00  0.00000000E+00  0.00000000E+00
  0.00000000E+00  0.00000000E+00  0.00000000E+00
  0.00000000E+00  0.00000000E+00  0.00000000E+00
  0.00000000E+00  0.00000000E+00  0.00000000E+00
  0.00000000E+00  0.00000000E+00  0.00000000E+00
  0.00000000E+00  0.00000000E+00  0.00000000E+00
  0.00000000E+00  0.00000000E+00  0.00000000E+00
  0.00000000E+00  0.00000000E+00  0.00000000E+00
  0.00000000E+00  0.00000000E+00  0.00000000E+00
  0.00000000E+00  0.00000000E+00  0.00000000E+00
  0.00000000E+00  0.00000000E+00  0.00000000E+00
  0.00000000E+00  0.00000000E+00  0.00000000E+00
  0.00000000E+00  0.00000000E+00  0.00000000E+00
  0.00000000E+00  0.00000000E+00  0.00000000E+00
