Cs4 Pb4 I12                             
   1.00000000000000     
    17.7788829803000006    0.0000000000000000    0.0000000000000000
     0.0000000000000000   17.9504604340000000    0.0000000000000000
     0.0000000000000000    0.0000000000000000   12.7661609649999992
   Cs   Pb   I    O 
    16    16    48     1
Direct
  0.4956466149080350  0.4749816426265395  0.2607801682111945
  0.4955218854368350  0.9706919369359785  0.2481395527844918
  0.9956198963499725  0.4714195338646219  0.2482521173029202
  0.9948858144347590  0.9710113089819622  0.2496301467263825
  0.0051143243355685  0.0289885857532367  0.7503698526206852
  0.0043782663161971  0.5285807101073486  0.7517481906202024
  0.5044778586261999  0.0293097989281182  0.7518602256376582
  0.5043612145787376  0.5250107653835051  0.7392205510807289
  0.2454413677069388  0.2776696616860567  0.7509162894114760
  0.2448509589646489  0.7792086955815167  0.7516739453103403
  0.7488561917025220  0.2757870916309141  0.7573831069404731
  0.7472028866864210  0.7811984841981843  0.7544540089387904
  0.2527978085747215  0.2188010154156545  0.2455462338985274
  0.2511399072456365  0.7242158704788650  0.2426104042831386
  0.7551475571836656  0.2207930040189055  0.2483282100919184
  0.7545593379900869  0.7223295681726731  0.2490839451163890
  0.2502741167315055  0.0000772894089297 -0.0003199862743837
  0.2509945183204839  0.4997377592776278  0.0009723349399221
  0.7497259258747587 -0.0000762680076292  0.0003199294634397
  0.7490054409972312  0.5002611923621050 -0.0009725121205006
  0.0001494974341672  0.2502622512597479  0.0004039869110301
 -0.0001504553227351  0.7497376928521801 -0.0004040513832679
  0.5000374725226681  0.2513281750003271  0.0009340695741037
  0.4999635725171034  0.7486718915512812 -0.0009344200206674
  0.2496412748176536 -0.0019463450598560  0.5000470992388752
  0.2489552616852150  0.4963457575170377  0.5010621996840880
  0.7503591056960487  0.0019508501256937  0.4999529808080572
  0.7510290022361761  0.5036383758350064  0.4989406030356923
 -0.0016266579406273  0.2495992089262471  0.4998500675395289
  0.0016224044567524  0.7504003308375987  0.5001486216849688
  0.4961296096007652  0.2490683597142996  0.4989442025893849
  0.5038863705363977  0.7509470053377610  0.5010597498723949
  0.0329170763149622  0.2560885973066707  0.2503481635012206
  0.0325027923518073  0.7556177043344040  0.2497037128784420
  0.5330736732821555  0.2541240720543670  0.2491864083811767
  0.5325281366858614  0.7544867485675897  0.2512208905496341
  0.4674706876305161  0.2455122955030021  0.7487807356188426
  0.4669253125215415  0.7458749897124710  0.7508109530287478
  0.9674978729193427  0.2443824419161278  0.7502960650614546
  0.9670833229663287  0.7439113656514763  0.7496520281866343
  0.2802305832163444  0.4938957361326582  0.7511063966436333
  0.2840009291228026  0.9944627456813613  0.7496439999093272
  0.7818730366784495  0.4923913255809878  0.7485264021704500
  0.7836251150115670  0.9956428701823467  0.7502076063388969
  0.2163747246622984  0.0043566546026069  0.2497922216160806
  0.2181283726778275  0.5076102667094907  0.2514754818571661
  0.7159991487529800  0.0055368289891991  0.2503561452017272
  0.7197702549599821  0.5061052661505951  0.2488911332133539
  0.4013728646494008  0.0991170583671437  0.0333493874153758
  0.4010835762492167  0.5992956090733331  0.0375919638919482
  0.9012379632333993  0.0991853436979125  0.0336476362581144
  0.9018264079344163  0.5988476469574078  0.0321134331874684
  0.0981743069986626  0.4011529582824002  0.9678865662376194
  0.0987621639963009  0.9008145460354934  0.9663523230653428
  0.5989162835042766  0.4007045105277722  0.9624091426943527
  0.5986265541415098  0.9008822837928890  0.9666506392991774
  0.1513310226324096  0.1508068572815384  0.9659406637947017
  0.1510701892395732  0.6507177694020559  0.9663010604679505
  0.6506348474668721  0.1500851488426672  0.9673530204294467
  0.6527619568161592  0.6521635828941144  0.9673670623610542
  0.3472370829506854  0.3478374087352110  0.0326328915631219
  0.3493653275243541  0.8499142338216179  0.0326471232259965
  0.8489304474229969  0.3492821012688073  0.0336991148346814
  0.8486691698720776  0.8491929799524044  0.0340593385626685
  0.0956918970830781  0.4025622748823885  0.5333358059609410
  0.0983401998187771  0.9009207622835629  0.5342173682062719
  0.5888903191998075  0.4103687872433416  0.5209642316339334
  0.5970284510813663  0.9039877976818124  0.5336671267690112
  0.4029687594741254  0.0960094751106205  0.4663325928903202
  0.4111761727042731  0.5895645538268174  0.4790526747153628
  0.9016599512797159  0.0990790860243184  0.4657828389825240
  0.9043106516930096  0.5974402766374387  0.4666645027043767
  0.3404249191780879  0.3413110477726010  0.4696248316080057
  0.3468978424870164  0.8451399743732909  0.4665045884416522
  0.8451499307195457  0.3471799219601450  0.4695336418072930
  0.8500213989704773  0.8508349554546807  0.4661833428906733
  0.1499799996368452  0.1491636561318386  0.5338165929797180
  0.1548565074199250  0.6528190094813897  0.5304651975141758
  0.6531034087283185  0.1548531504592927  0.5334949291359309
  0.6595709141826452  0.6586929968119246  0.5303749775909096
  0.4999291387514060  0.5000713991539479  0.4999832362051108
 
  0.00000000E+00  0.00000000E+00  0.00000000E+00
  0.00000000E+00  0.00000000E+00  0.00000000E+00
  0.00000000E+00  0.00000000E+00  0.00000000E+00
  0.00000000E+00  0.00000000E+00  0.00000000E+00
  0.00000000E+00  0.00000000E+00  0.00000000E+00
  0.00000000E+00  0.00000000E+00  0.00000000E+00
  0.00000000E+00  0.00000000E+00  0.00000000E+00
  0.00000000E+00  0.00000000E+00  0.00000000E+00
  0.00000000E+00  0.00000000E+00  0.00000000E+00
  0.00000000E+00  0.00000000E+00  0.00000000E+00
  0.00000000E+00  0.00000000E+00  0.00000000E+00
  0.00000000E+00  0.00000000E+00  0.00000000E+00
  0.00000000E+00  0.00000000E+00  0.00000000E+00
  0.00000000E+00  0.00000000E+00  0.00000000E+00
  0.00000000E+00  0.00000000E+00  0.00000000E+00
  0.00000000E+00  0.00000000E+00  0.00000000E+00
  0.00000000E+00  0.00000000E+00  0.00000000E+00
  0.00000000E+00  0.00000000E+00  0.00000000E+00
  0.00000000E+00  0.00000000E+00  0.00000000E+00
  0.00000000E+00  0.00000000E+00  0.00000000E+00
  0.00000000E+00  0.00000000E+00  0.00000000E+00
  0.00000000E+00  0.00000000E+00  0.00000000E+00
  0.00000000E+00  0.00000000E+00  0.00000000E+00
  0.00000000E+00  0.00000000E+00  0.00000000E+00
  0.00000000E+00  0.00000000E+00  0.00000000E+00
  0.00000000E+00  0.00000000E+00  0.00000000E+00
  0.00000000E+00  0.00000000E+00  0.00000000E+00
  0.00000000E+00  0.00000000E+00  0.00000000E+00
  0.00000000E+00  0.00000000E+00  0.00000000E+00
  0.00000000E+00  0.00000000E+00  0.00000000E+00
  0.00000000E+00  0.00000000E+00  0.00000000E+00
  0.00000000E+00  0.00000000E+00  0.00000000E+00
  0.00000000E+00  0.00000000E+00  0.00000000E+00
  0.00000000E+00  0.00000000E+00  0.00000000E+00
  0.00000000E+00  0.00000000E+00  0.00000000E+00
  0.00000000E+00  0.00000000E+00  0.00000000E+00
  0.00000000E+00  0.00000000E+00  0.00000000E+00
  0.00000000E+00  0.00000000E+00  0.00000000E+00
  0.00000000E+00  0.00000000E+00  0.00000000E+00
  0.00000000E+00  0.00000000E+00  0.00000000E+00
  0.00000000E+00  0.00000000E+00  0.00000000E+00
  0.00000000E+00  0.00000000E+00  0.00000000E+00
  0.00000000E+00  0.00000000E+00  0.00000000E+00
  0.00000000E+00  0.00000000E+00  0.00000000E+00
  0.00000000E+00  0.00000000E+00  0.00000000E+00
  0.00000000E+00  0.00000000E+00  0.00000000E+00
  0.00000000E+00  0.00000000E+00  0.00000000E+00
  0.00000000E+00  0.00000000E+00  0.00000000E+00
  0.00000000E+00  0.00000000E+00  0.00000000E+00
  0.00000000E+00  0.00000000E+00  0.00000000E+00
  0.00000000E+00  0.00000000E+00  0.00000000E+00
  0.00000000E+00  0.00000000E+00  0.00000000E+00
  0.00000000E+00  0.00000000E+00  0.00000000E+00
  0.00000000E+00  0.00000000E+00  0.00000000E+00
  0.00000000E+00  0.00000000E+00  0.00000000E+00
  0.00000000E+00  0.00000000E+00  0.00000000E+00
  0.00000000E+00  0.00000000E+00  0.00000000E+00
  0.00000000E+00  0.00000000E+00  0.00000000E+00
  0.00000000E+00  0.00000000E+00  0.00000000E+00
  0.00000000E+00  0.00000000E+00  0.00000000E+00
  0.00000000E+00  0.00000000E+00  0.00000000E+00
  0.00000000E+00  0.00000000E+00  0.00000000E+00
  0.00000000E+00  0.00000000E+00  0.00000000E+00
  0.00000000E+00  0.00000000E+00  0.00000000E+00
  0.00000000E+00  0.00000000E+00  0.00000000E+00
  0.00000000E+00  0.00000000E+00  0.00000000E+00
  0.00000000E+00  0.00000000E+00  0.00000000E+00
  0.00000000E+00  0.00000000E+00  0.00000000E+00
  0.00000000E+00  0.00000000E+00  0.00000000E+00
  0.00000000E+00  0.00000000E+00  0.00000000E+00
  0.00000000E+00  0.00000000E+00  0.00000000E+00
  0.00000000E+00  0.00000000E+00  0.00000000E+00
  0.00000000E+00  0.00000000E+00  0.00000000E+00
  0.00000000E+00  0.00000000E+00  0.00000000E+00
  0.00000000E+00  0.00000000E+00  0.00000000E+00
  0.00000000E+00  0.00000000E+00  0.00000000E+00
  0.00000000E+00  0.00000000E+00  0.00000000E+00
  0.00000000E+00  0.00000000E+00  0.00000000E+00
  0.00000000E+00  0.00000000E+00  0.00000000E+00
  0.00000000E+00  0.00000000E+00  0.00000000E+00
  0.00000000E+00  0.00000000E+00  0.00000000E+00
