Cs4 Pb4 I12                             
   1.00000000000000     
    17.7788829803000006    0.0000000000000000    0.0000000000000000
     0.0000000000000000   17.9504604340000000    0.0000000000000000
     0.0000000000000000    0.0000000000000000   12.7661609649999992
   Cs   Pb   I    S 
    16    16    48     1
Direct
  0.4968983826256230  0.4727402589419610  0.2347838860075854
  0.4965664202772655  0.9716654762900887  0.2482499086514379
  0.9960650342966247  0.4715269319867620  0.2484507499562846
  0.9958081815141091  0.9718203365099051  0.2495087926405899
  0.0041917985260862  0.0281796576478332  0.7504913510190264
  0.0039349596188059  0.5284731241221842  0.7515494339908501
  0.5034335943714242  0.0283345187216530  0.7517501932303263
  0.5031017695893588  0.5272591282968702  0.7652135144511666
  0.2460721207676673  0.2766225319191273  0.7504932180564818
  0.2464843262644815  0.7768058671947604  0.7494570227119244
  0.7485122817023188  0.2759079809120847  0.7541133822236223
  0.7493699843232920  0.7810436912424817  0.7571187984868307
  0.2506300007150435  0.2189563369589266  0.2428813577203279
  0.2514877678821417  0.7240920559528010  0.2458867577314759
  0.7535157101421929  0.2231941676147571  0.2505431418363714
  0.7539278136921461  0.7233774974961008  0.2495068876219689
  0.2495800282156189 -0.0003361949773525 -0.0005898252508549
  0.2482769236950493  0.4993833803562814 -0.0004532209230412
  0.7504199714251217  0.0003362446377185  0.0005899784551353
  0.7517230431412185  0.5006166368158423  0.0004533154866551
 -0.0001965701030050  0.2497038204792888  0.0002129110350436
  0.0001965265353868  0.7502962113028494 -0.0002127635674337
  0.4995561590880811  0.2483944462562036  0.0005432489468050
  0.5004438467528532  0.7516055197288247 -0.0005431537787430
  0.2504195919764651 -0.0017595807933891  0.4999724690075308
  0.2488392887654402  0.4922885242683882  0.5002351707868742
  0.7495803967443319  0.0017596350554692  0.5000276867686625
  0.7511606606895106  0.5077114239481834  0.4997648205166096
 -0.0015786336419042  0.2507037242581472  0.4999089602859024
  0.0015786048041029  0.7492962906421992  0.5000911794220945
  0.4919507240114711  0.2484575302935492  0.4984287116521535
  0.5080493943050634  0.7515426023156320  0.5015712346646105
  0.0320644868459239  0.2559617142366369  0.2503804862554996
  0.0324172717328194  0.7563851946778233  0.2503181766423022
  0.5313885984323157  0.2536544845300403  0.2493042857527957
  0.5330243426417286  0.7569167639650519  0.2498752466250295
  0.4669756176585533  0.2430833045888813  0.7501248521226057
  0.4686114380187556  0.7463454267650029  0.7506958285966827
  0.9675827306737268  0.2436148143052560  0.7496819300542927
  0.9679355090033196  0.7440383310682267  0.7496196957401214
  0.2800324263942047  0.4938936938957280  0.7503404605886719
  0.2826713286678026  0.9937134740792073  0.7495224653365395
  0.7831191532657331  0.4939342203509999  0.7505321615316940
  0.7832617624578629  0.9952848360307598  0.7496867489232943
  0.2167382390401960  0.0047151920140441  0.2503134255853668
  0.2168808550596200  0.5060658193944726  0.2494679370826118
  0.7173286636876295  0.0062865481170192  0.2504776516878051
  0.7199675622606280  0.5061063162965144  0.2496595365610741
  0.4010252434283517  0.0978394292061090  0.0330323634136687
  0.3953236865991370  0.6051173928428528  0.0311049825978857
  0.9015765366619253  0.0989246073495102  0.0329918088632325
  0.9027554056741885  0.5993393900303061  0.0326377945562247
  0.0972446216740555  0.4006606501530641  0.9673623127140898
  0.0984234480877522  0.9010754008286963  0.9670083546114594
  0.6046762521845798  0.3948827186892899  0.9688943559088559
  0.5989747340799967  0.9021605822744578  0.9669677822261958
  0.1514235461781124  0.1508188648299643  0.9665292295194733
  0.1504337458392195  0.6511438508920661  0.9670572408015589
  0.6512766048830279  0.1496642648392361  0.9677487387975002
  0.6511211787732910  0.6507116457281845  0.9691036311071982
  0.3488788105939062  0.3492883917746102  0.0308965194184121
  0.3487234332941003  0.8503357644992331  0.0322513755104123
  0.8495662134615787  0.3488562080728044  0.0329428685147194
  0.8485764715638147  0.8491811763736542  0.0334708873644836
  0.0942451714282899  0.4034319712479104  0.5335367768441608
  0.0978270345126706  0.9014776000101653  0.5339160611162146
  0.6046671711502020  0.3946006901180154  0.5324487003865594
  0.5960350023696215  0.9056832757578542  0.5328904272675307
  0.4039649881720918  0.0943167632325225  0.4671097101848299
  0.3953328947445959  0.6053991487803803  0.4675510146605685
  0.9021729985343451  0.0985224580578725  0.4660840567484316
  0.9057548431888034  0.5965680863138415  0.4664633920289781
  0.3320932937947232  0.3331540585533683  0.4727211346268825
  0.3496594304936418  0.8471188368862940  0.4677097445703859
  0.8473454453831070  0.3500654630959629  0.4692028174454452
  0.8508078340764434  0.8516222164146943  0.4666909693859598
  0.1491921604551396  0.1483778037337296  0.5333091786055753
  0.1526546005963388  0.6499345418995512  0.5307973202216918
  0.6503405527662589  0.1528811800508684  0.5322904131110999
  0.6679066223466920  0.6668459474444733  0.5272791098554591
  0.4999999524557996  0.4999999833066325  0.4999989340841970
 
  0.00000000E+00  0.00000000E+00  0.00000000E+00
  0.00000000E+00  0.00000000E+00  0.00000000E+00
  0.00000000E+00  0.00000000E+00  0.00000000E+00
  0.00000000E+00  0.00000000E+00  0.00000000E+00
  0.00000000E+00  0.00000000E+00  0.00000000E+00
  0.00000000E+00  0.00000000E+00  0.00000000E+00
  0.00000000E+00  0.00000000E+00  0.00000000E+00
  0.00000000E+00  0.00000000E+00  0.00000000E+00
  0.00000000E+00  0.00000000E+00  0.00000000E+00
  0.00000000E+00  0.00000000E+00  0.00000000E+00
  0.00000000E+00  0.00000000E+00  0.00000000E+00
  0.00000000E+00  0.00000000E+00  0.00000000E+00
  0.00000000E+00  0.00000000E+00  0.00000000E+00
  0.00000000E+00  0.00000000E+00  0.00000000E+00
  0.00000000E+00  0.00000000E+00  0.00000000E+00
  0.00000000E+00  0.00000000E+00  0.00000000E+00
  0.00000000E+00  0.00000000E+00  0.00000000E+00
  0.00000000E+00  0.00000000E+00  0.00000000E+00
  0.00000000E+00  0.00000000E+00  0.00000000E+00
  0.00000000E+00  0.00000000E+00  0.00000000E+00
  0.00000000E+00  0.00000000E+00  0.00000000E+00
  0.00000000E+00  0.00000000E+00  0.00000000E+00
  0.00000000E+00  0.00000000E+00  0.00000000E+00
  0.00000000E+00  0.00000000E+00  0.00000000E+00
  0.00000000E+00  0.00000000E+00  0.00000000E+00
  0.00000000E+00  0.00000000E+00  0.00000000E+00
  0.00000000E+00  0.00000000E+00  0.00000000E+00
  0.00000000E+00  0.00000000E+00  0.00000000E+00
  0.00000000E+00  0.00000000E+00  0.00000000E+00
  0.00000000E+00  0.00000000E+00  0.00000000E+00
  0.00000000E+00  0.00000000E+00  0.00000000E+00
  0.00000000E+00  0.00000000E+00  0.00000000E+00
  0.00000000E+00  0.00000000E+00  0.00000000E+00
  0.00000000E+00  0.00000000E+00  0.00000000E+00
  0.00000000E+00  0.00000000E+00  0.00000000E+00
  0.00000000E+00  0.00000000E+00  0.00000000E+00
  0.00000000E+00  0.00000000E+00  0.00000000E+00
  0.00000000E+00  0.00000000E+00  0.00000000E+00
  0.00000000E+00  0.00000000E+00  0.00000000E+00
  0.00000000E+00  0.00000000E+00  0.00000000E+00
  0.00000000E+00  0.00000000E+00  0.00000000E+00
  0.00000000E+00  0.00000000E+00  0.00000000E+00
  0.00000000E+00  0.00000000E+00  0.00000000E+00
  0.00000000E+00  0.00000000E+00  0.00000000E+00
  0.00000000E+00  0.00000000E+00  0.00000000E+00
  0.00000000E+00  0.00000000E+00  0.00000000E+00
  0.00000000E+00  0.00000000E+00  0.00000000E+00
  0.00000000E+00  0.00000000E+00  0.00000000E+00
  0.00000000E+00  0.00000000E+00  0.00000000E+00
  0.00000000E+00  0.00000000E+00  0.00000000E+00
  0.00000000E+00  0.00000000E+00  0.00000000E+00
  0.00000000E+00  0.00000000E+00  0.00000000E+00
  0.00000000E+00  0.00000000E+00  0.00000000E+00
  0.00000000E+00  0.00000000E+00  0.00000000E+00
  0.00000000E+00  0.00000000E+00  0.00000000E+00
  0.00000000E+00  0.00000000E+00  0.00000000E+00
  0.00000000E+00  0.00000000E+00  0.00000000E+00
  0.00000000E+00  0.00000000E+00  0.00000000E+00
  0.00000000E+00  0.00000000E+00  0.00000000E+00
  0.00000000E+00  0.00000000E+00  0.00000000E+00
  0.00000000E+00  0.00000000E+00  0.00000000E+00
  0.00000000E+00  0.00000000E+00  0.00000000E+00
  0.00000000E+00  0.00000000E+00  0.00000000E+00
  0.00000000E+00  0.00000000E+00  0.00000000E+00
  0.00000000E+00  0.00000000E+00  0.00000000E+00
  0.00000000E+00  0.00000000E+00  0.00000000E+00
  0.00000000E+00  0.00000000E+00  0.00000000E+00
  0.00000000E+00  0.00000000E+00  0.00000000E+00
  0.00000000E+00  0.00000000E+00  0.00000000E+00
  0.00000000E+00  0.00000000E+00  0.00000000E+00
  0.00000000E+00  0.00000000E+00  0.00000000E+00
  0.00000000E+00  0.00000000E+00  0.00000000E+00
  0.00000000E+00  0.00000000E+00  0.00000000E+00
  0.00000000E+00  0.00000000E+00  0.00000000E+00
  0.00000000E+00  0.00000000E+00  0.00000000E+00
  0.00000000E+00  0.00000000E+00  0.00000000E+00
  0.00000000E+00  0.00000000E+00  0.00000000E+00
  0.00000000E+00  0.00000000E+00  0.00000000E+00
  0.00000000E+00  0.00000000E+00  0.00000000E+00
  0.00000000E+00  0.00000000E+00  0.00000000E+00
  0.00000000E+00  0.00000000E+00  0.00000000E+00
