Cs4 Pb4 I12                             
   1.00000000000000     
    17.7788829803000006    0.0000000000000000    0.0000000000000000
     0.0000000000000000   17.9504604340000000    0.0000000000000000
     0.0000000000000000    0.0000000000000000   12.7661609649999992
   Cs   Pb   I    P 
    16    16    48     1
Direct
  0.4967357090663055  0.4726293940073479  0.2256610208279793
  0.4962268062674329  0.9720536066481332  0.2489189244923970
  0.9952813393139943  0.4710104448600437  0.2490256508936092
  0.9956473952410438  0.9715369391629376  0.2494686877980914
  0.0043525153549507  0.0284636286315555  0.7505314673657262
  0.0047183327855044  0.5289898411061548  0.7509741867442434
  0.5037729211543185  0.0279458995940956  0.7510807269035121
  0.5032644867931341  0.5273704619338725  0.7743389228932807
  0.2463294266244677  0.2777714205174198  0.7496187282604408
  0.2469530880914419  0.7765827012749553  0.7490972122007071
  0.7474300867328838  0.2769660882431719  0.7531026913587863
  0.7464567925758678  0.7783972243735909  0.7516528945409630
  0.2535425120219216  0.2216031139166984  0.2483468925680867
  0.2525695017241670  0.7230340186035982  0.2468971255951898
  0.7530467365051768  0.2234172105385513  0.2509025835536497
  0.7536790396908457  0.7222300789612371  0.2503803870330137
  0.2492411571168395  0.0000007902240234 -0.0002954412695014
  0.2470682623705491  0.4995905675613979 -0.0000396885320376
  0.7507599873342812 -0.0000014918556087  0.0002964105049439
  0.7529314287044945  0.5004097316894872  0.0000406692453594
  0.0001093038986986  0.2494031940735087  0.0001317046124566
 -0.0001094090347565  0.7505976018505623 -0.0001318703652725
  0.4995336387390621  0.2471978915523839 -0.0005205483706473
  0.5004669469703841  0.7528023054442308  0.0005218430754917
  0.2491999538103073 -0.0010315099708196  0.5000875008637239
  0.2472510051374217  0.4962010322299328  0.5008204834544611
  0.7508001624942396  0.0010313826734325  0.4999127331933474
  0.7527485251150924  0.5037995172989327  0.4991785363810909
 -0.0006818839936520  0.2493973429318267  0.4996528283667193
  0.0006814933055411  0.7506024168276377  0.5003474821669813
  0.4960397929903481  0.2470672568934888  0.4983310068497426
  0.5039604152155746  0.7529325670207236  0.5016687511556961
  0.0334116445310781  0.2554234830824828  0.2499588875176560
  0.0328006342303357  0.7561329247823164  0.2499804096341038
  0.5315337836645003  0.2524675771560068  0.2500485928358924
  0.5336926372142446  0.7577728880393196  0.2500056431227291
  0.4663043559889176  0.2422274452594891  0.7499941799360721
  0.4684657289208196  0.7475326668660350  0.7499512080689203
  0.9671995723234231  0.2438674060536787  0.7500194416465854
  0.9665878972709273  0.7445765921462814  0.7500410227242499
  0.2798666760652190  0.4948044960076693  0.7501731711048597
  0.2828536220680337  0.9938269630319491  0.7498709096801905
  0.7847571397957467  0.4952279157935223  0.7501462167354580
  0.7837674957597095  0.9942940043804234  0.7500391216427345
  0.2162316441397753  0.0057061238956320  0.2499608769369341
  0.2152423231166568  0.5047719837600104  0.2498536419753035
  0.7171460527368623  0.0061735234938500  0.2501290133704478
  0.7201320498660950  0.5051916016416189  0.2498265910478130
  0.4010314035994979  0.0975581544890426  0.0337144830888562
  0.3920982116461090  0.6081849341498878  0.0318281081048227
  0.9018282433971435  0.0987520303749321  0.0335523232065640
  0.9031621220525647  0.5992952283096821  0.0334917633012809
  0.0968390435150438  0.4007035865584525  0.9665061366983198
  0.0981713109849310  0.9012476822553768  0.9664480524230805
  0.6079019130545654  0.3918152691635498  0.9681721113734790
  0.5989682289121238  0.9024420998925311  0.9662852462391067
  0.1518097773663534  0.1512424988382981  0.9662904568114216
  0.1496998813816800  0.6510719007372698  0.9661436624219363
  0.6512217342092331  0.1490133495727185  0.9668016235792211
  0.6505034913837391  0.6500783529760824  0.9700215940608826
  0.3494951539342580  0.3499207688195339  0.0299755534942572
  0.3487783018291182  0.8509862530960774  0.0331981004454890
  0.8502993508510318  0.3489287748491759  0.0338564569056264
  0.8481913094968051  0.8487588293625247  0.0337066623949336
  0.0966989372102020  0.4024936483164808  0.5339219868401456
  0.0978077655997224  0.9015213939445809  0.5340218884777194
  0.6085707244478873  0.3906101146343328  0.5409934521944487
  0.5971482159476404  0.9031665020928958  0.5338273257323433
  0.4028512539243286  0.0968337743122220  0.4661728186396288
  0.3914294065399967  0.6093900660528707  0.4590063446360041
  0.9021916668123514  0.0984782837856818  0.4659775815712932
  0.9033022353372403  0.5975049848753826  0.4660800051516203
  0.3430508483346413  0.3434863316206379  0.4704181296639566
  0.3491441868332411  0.8496872895255442  0.4661234093245026
  0.8496421334611497  0.3498628532148104  0.4667646299953485
  0.8487341865916972  0.8493994551614047  0.4663460647574062
  0.1512675254637529  0.1506025782051752  0.5336573725928029
  0.1503572675216479  0.6501376981378022  0.5332351231525393
  0.6508557883207614  0.1503125583715858  0.5338767443068838
  0.6569477367360785  0.6565127090078887  0.5295856975628712
  0.4999999334932438  0.5000000550867517  0.4999996745090262
 
  0.00000000E+00  0.00000000E+00  0.00000000E+00
  0.00000000E+00  0.00000000E+00  0.00000000E+00
  0.00000000E+00  0.00000000E+00  0.00000000E+00
  0.00000000E+00  0.00000000E+00  0.00000000E+00
  0.00000000E+00  0.00000000E+00  0.00000000E+00
  0.00000000E+00  0.00000000E+00  0.00000000E+00
  0.00000000E+00  0.00000000E+00  0.00000000E+00
  0.00000000E+00  0.00000000E+00  0.00000000E+00
  0.00000000E+00  0.00000000E+00  0.00000000E+00
  0.00000000E+00  0.00000000E+00  0.00000000E+00
  0.00000000E+00  0.00000000E+00  0.00000000E+00
  0.00000000E+00  0.00000000E+00  0.00000000E+00
  0.00000000E+00  0.00000000E+00  0.00000000E+00
  0.00000000E+00  0.00000000E+00  0.00000000E+00
  0.00000000E+00  0.00000000E+00  0.00000000E+00
  0.00000000E+00  0.00000000E+00  0.00000000E+00
  0.00000000E+00  0.00000000E+00  0.00000000E+00
  0.00000000E+00  0.00000000E+00  0.00000000E+00
  0.00000000E+00  0.00000000E+00  0.00000000E+00
  0.00000000E+00  0.00000000E+00  0.00000000E+00
  0.00000000E+00  0.00000000E+00  0.00000000E+00
  0.00000000E+00  0.00000000E+00  0.00000000E+00
  0.00000000E+00  0.00000000E+00  0.00000000E+00
  0.00000000E+00  0.00000000E+00  0.00000000E+00
  0.00000000E+00  0.00000000E+00  0.00000000E+00
  0.00000000E+00  0.00000000E+00  0.00000000E+00
  0.00000000E+00  0.00000000E+00  0.00000000E+00
  0.00000000E+00  0.00000000E+00  0.00000000E+00
  0.00000000E+00  0.00000000E+00  0.00000000E+00
  0.00000000E+00  0.00000000E+00  0.00000000E+00
  0.00000000E+00  0.00000000E+00  0.00000000E+00
  0.00000000E+00  0.00000000E+00  0.00000000E+00
  0.00000000E+00  0.00000000E+00  0.00000000E+00
  0.00000000E+00  0.00000000E+00  0.00000000E+00
  0.00000000E+00  0.00000000E+00  0.00000000E+00
  0.00000000E+00  0.00000000E+00  0.00000000E+00
  0.00000000E+00  0.00000000E+00  0.00000000E+00
  0.00000000E+00  0.00000000E+00  0.00000000E+00
  0.00000000E+00  0.00000000E+00  0.00000000E+00
  0.00000000E+00  0.00000000E+00  0.00000000E+00
  0.00000000E+00  0.00000000E+00  0.00000000E+00
  0.00000000E+00  0.00000000E+00  0.00000000E+00
  0.00000000E+00  0.00000000E+00  0.00000000E+00
  0.00000000E+00  0.00000000E+00  0.00000000E+00
  0.00000000E+00  0.00000000E+00  0.00000000E+00
  0.00000000E+00  0.00000000E+00  0.00000000E+00
  0.00000000E+00  0.00000000E+00  0.00000000E+00
  0.00000000E+00  0.00000000E+00  0.00000000E+00
  0.00000000E+00  0.00000000E+00  0.00000000E+00
  0.00000000E+00  0.00000000E+00  0.00000000E+00
  0.00000000E+00  0.00000000E+00  0.00000000E+00
  0.00000000E+00  0.00000000E+00  0.00000000E+00
  0.00000000E+00  0.00000000E+00  0.00000000E+00
  0.00000000E+00  0.00000000E+00  0.00000000E+00
  0.00000000E+00  0.00000000E+00  0.00000000E+00
  0.00000000E+00  0.00000000E+00  0.00000000E+00
  0.00000000E+00  0.00000000E+00  0.00000000E+00
  0.00000000E+00  0.00000000E+00  0.00000000E+00
  0.00000000E+00  0.00000000E+00  0.00000000E+00
  0.00000000E+00  0.00000000E+00  0.00000000E+00
  0.00000000E+00  0.00000000E+00  0.00000000E+00
  0.00000000E+00  0.00000000E+00  0.00000000E+00
  0.00000000E+00  0.00000000E+00  0.00000000E+00
  0.00000000E+00  0.00000000E+00  0.00000000E+00
  0.00000000E+00  0.00000000E+00  0.00000000E+00
  0.00000000E+00  0.00000000E+00  0.00000000E+00
  0.00000000E+00  0.00000000E+00  0.00000000E+00
  0.00000000E+00  0.00000000E+00  0.00000000E+00
  0.00000000E+00  0.00000000E+00  0.00000000E+00
  0.00000000E+00  0.00000000E+00  0.00000000E+00
  0.00000000E+00  0.00000000E+00  0.00000000E+00
  0.00000000E+00  0.00000000E+00  0.00000000E+00
  0.00000000E+00  0.00000000E+00  0.00000000E+00
  0.00000000E+00  0.00000000E+00  0.00000000E+00
  0.00000000E+00  0.00000000E+00  0.00000000E+00
  0.00000000E+00  0.00000000E+00  0.00000000E+00
  0.00000000E+00  0.00000000E+00  0.00000000E+00
  0.00000000E+00  0.00000000E+00  0.00000000E+00
  0.00000000E+00  0.00000000E+00  0.00000000E+00
  0.00000000E+00  0.00000000E+00  0.00000000E+00
  0.00000000E+00  0.00000000E+00  0.00000000E+00
