Cs4 Pb4 I12                             
   1.00000000000000     
    17.7788829803000006    0.0000000000000000    0.0000000000000000
     0.0000000000000000   17.9504604340000000    0.0000000000000000
     0.0000000000000000    0.0000000000000000   12.7661609649999992
   Cs   Pb   I    F 
    16    16    48     1
Direct
  0.4958694181851374  0.4750942151763815  0.2753830067138183
  0.4952679521115360  0.9699514293656576  0.2449206767475168
  0.9945670442820650  0.4697954896801804  0.2455492474393273
  0.9946006064771623  0.9699819783284250  0.2474342742050484
  0.0053995145396682  0.0300179747649280  0.7525656147040446
  0.0054327980372302  0.5302045924835507  0.7544507975892810
  0.5047319521502839  0.0300487531295194  0.7550792089306072
  0.5041305657404260  0.5249052102032362  0.7246158287275341
  0.2447635710161394  0.2787176077878853  0.7527186252757684
  0.2457343015692603  0.7785048801124160  0.7511973998049084
  0.7464351710191023  0.2786126530619613  0.7559661791120522
  0.7465002315360946  0.7813072804816646  0.7555770241649524
  0.2534998674369888  0.2186925195544112  0.2444229561297819
  0.2535647843746608  0.7213874138809679  0.2440334812928221
  0.7542653203028663  0.2214952548758603  0.2488026132940848
  0.7552364370088602  0.7212824473126581  0.2472814390226267
  0.2505771880839935 -0.0001021830593441 -0.0001931482208387
  0.2520816339236227  0.4999392477781076  0.0001843114881931
  0.7494227142910336  0.0001020006752279  0.0001932051205377
  0.7479180272836108  0.5000611291382584 -0.0001835289542143
 -0.0000047342743074  0.2506775724063434 -0.0000425923377062
  0.0000047920559854  0.7493224409393821  0.0000427949579343
  0.5001848914224155  0.2528451506250753  0.0012859054536770
  0.4998144143324878  0.7471547449690554 -0.0012864347626550
  0.2488014957123217 -0.0012495313183270  0.5001832656302876
  0.2452762987609121  0.4959938375850599  0.5001127891905065
  0.7511985067115079  0.0012482958758696  0.4998162654004779
  0.7547235847732006  0.5040064184595071  0.4998889319715761
 -0.0009748255766823  0.2490946756166656  0.4997282593404363
  0.0009752533294078  0.7509056234565658  0.5002720807144786
  0.4954392388781966  0.2453857712908047  0.4998288486449926
  0.5045618461403855  0.7546155362791117  0.5001718722486611
  0.0339548887505148  0.2551807797627991  0.2501120986674403
  0.0338807414086894  0.7556270675011609  0.2500656169792970
  0.5325802848177488  0.2557490589078291  0.2495663240288797
  0.5349297966563642  0.7558478379192272  0.2505532155486291
  0.4650701970158712  0.2441523764779419  0.7494470484240058
  0.4674196394701853  0.7442503737532511  0.7504334423716653
  0.9661194968964353  0.2443729697589717  0.7499344709549550
  0.9660451716874062  0.7448191444521243  0.7498878192676331
  0.2819539032080629  0.4945024844073981  0.7495846053777100
  0.2842483171086056  0.9944668001778211  0.7498213691717943
  0.7854467550407587  0.4952679632313488  0.7501577816772882
  0.7847857943143702  0.9956586854976339  0.7499189643509394
  0.2152142684228290  0.0043412544698333  0.2500807776129373
  0.2145530152462373  0.5047320280688575  0.2498424602584604
  0.7157517174863243  0.0055332357242333  0.2501786486115273
  0.7180461870730280  0.5054978105932875  0.2504158112954785
  0.4013970424218353  0.0996875674524918  0.0342445487622622
  0.4023552351610277  0.5977875889271572  0.0418131566658268
  0.9013846183395393  0.0989878537676864  0.0344862641278612
  0.9013065975338617  0.5990774222710764  0.0337440097310240
  0.0986935264424459  0.4009225324132468  0.9662562612844058
  0.0986154832117909  0.9010122780655133  0.9655136539285465
  0.5976443165295068  0.4022126691640414  0.9581870795584797
  0.5986030281123979  0.9003124579718128  0.9657555357470360
  0.1513788455888737  0.1507116730619876  0.9651483602638649
  0.1513429792669971  0.6506365260870723  0.9651084399074414
  0.6506185296029486  0.1505772337091893  0.9666428849407678
  0.6536840246296107  0.6528961050603072  0.9677331526991743
  0.3463159709444647  0.3471039348023474  0.0322670728821323
  0.3493813827077762  0.8494227990966299  0.0333570915371878
  0.8486571371739559  0.3493636063141080  0.0348917975724135
  0.8486210993538748  0.8492883937373368  0.0348516772563721
  0.0942101838924458  0.4030757247454178  0.5359398029526269
  0.0974605171949158  0.9019733816076252  0.5360876940449202
  0.6070753714023587  0.3923252489527991  0.5286873833688821
  0.5963942985198997  0.9055722143228364  0.5356234993487461
  0.4036058920875974  0.0944279024510673  0.4643762890478286
  0.3929256170603077  0.6076738648155139  0.4713123877185507
  0.9025396660699980  0.0980264521237907  0.4639121503332543
  0.9057895441543065  0.5969242244095588  0.4640601476120141
  0.3422445137824303  0.3432869762003565  0.4686899226083542
  0.3480644795379130  0.8483729337466560  0.4650960013462730
  0.8487065186938955  0.3485670907269320  0.4663629012490562
  0.8491533506457117  0.8500747836384066  0.4648302077444325
  0.1508467126987106  0.1499250236501669  0.5351696111318820
  0.1512937718889617  0.6514330773371793  0.5336366836448971
  0.6519357470460779  0.1516262740035157  0.5349038466243828
  0.6577552989404111  0.6567128629915899  0.5313102547850495
  0.4999986811241556  0.5000012947537706  0.4999985919348946
 
  0.00000000E+00  0.00000000E+00  0.00000000E+00
  0.00000000E+00  0.00000000E+00  0.00000000E+00
  0.00000000E+00  0.00000000E+00  0.00000000E+00
  0.00000000E+00  0.00000000E+00  0.00000000E+00
  0.00000000E+00  0.00000000E+00  0.00000000E+00
  0.00000000E+00  0.00000000E+00  0.00000000E+00
  0.00000000E+00  0.00000000E+00  0.00000000E+00
  0.00000000E+00  0.00000000E+00  0.00000000E+00
  0.00000000E+00  0.00000000E+00  0.00000000E+00
  0.00000000E+00  0.00000000E+00  0.00000000E+00
  0.00000000E+00  0.00000000E+00  0.00000000E+00
  0.00000000E+00  0.00000000E+00  0.00000000E+00
  0.00000000E+00  0.00000000E+00  0.00000000E+00
  0.00000000E+00  0.00000000E+00  0.00000000E+00
  0.00000000E+00  0.00000000E+00  0.00000000E+00
  0.00000000E+00  0.00000000E+00  0.00000000E+00
  0.00000000E+00  0.00000000E+00  0.00000000E+00
  0.00000000E+00  0.00000000E+00  0.00000000E+00
  0.00000000E+00  0.00000000E+00  0.00000000E+00
  0.00000000E+00  0.00000000E+00  0.00000000E+00
  0.00000000E+00  0.00000000E+00  0.00000000E+00
  0.00000000E+00  0.00000000E+00  0.00000000E+00
  0.00000000E+00  0.00000000E+00  0.00000000E+00
  0.00000000E+00  0.00000000E+00  0.00000000E+00
  0.00000000E+00  0.00000000E+00  0.00000000E+00
  0.00000000E+00  0.00000000E+00  0.00000000E+00
  0.00000000E+00  0.00000000E+00  0.00000000E+00
  0.00000000E+00  0.00000000E+00  0.00000000E+00
  0.00000000E+00  0.00000000E+00  0.00000000E+00
  0.00000000E+00  0.00000000E+00  0.00000000E+00
  0.00000000E+00  0.00000000E+00  0.00000000E+00
  0.00000000E+00  0.00000000E+00  0.00000000E+00
  0.00000000E+00  0.00000000E+00  0.00000000E+00
  0.00000000E+00  0.00000000E+00  0.00000000E+00
  0.00000000E+00  0.00000000E+00  0.00000000E+00
  0.00000000E+00  0.00000000E+00  0.00000000E+00
  0.00000000E+00  0.00000000E+00  0.00000000E+00
  0.00000000E+00  0.00000000E+00  0.00000000E+00
  0.00000000E+00  0.00000000E+00  0.00000000E+00
  0.00000000E+00  0.00000000E+00  0.00000000E+00
  0.00000000E+00  0.00000000E+00  0.00000000E+00
  0.00000000E+00  0.00000000E+00  0.00000000E+00
  0.00000000E+00  0.00000000E+00  0.00000000E+00
  0.00000000E+00  0.00000000E+00  0.00000000E+00
  0.00000000E+00  0.00000000E+00  0.00000000E+00
  0.00000000E+00  0.00000000E+00  0.00000000E+00
  0.00000000E+00  0.00000000E+00  0.00000000E+00
  0.00000000E+00  0.00000000E+00  0.00000000E+00
  0.00000000E+00  0.00000000E+00  0.00000000E+00
  0.00000000E+00  0.00000000E+00  0.00000000E+00
  0.00000000E+00  0.00000000E+00  0.00000000E+00
  0.00000000E+00  0.00000000E+00  0.00000000E+00
  0.00000000E+00  0.00000000E+00  0.00000000E+00
  0.00000000E+00  0.00000000E+00  0.00000000E+00
  0.00000000E+00  0.00000000E+00  0.00000000E+00
  0.00000000E+00  0.00000000E+00  0.00000000E+00
  0.00000000E+00  0.00000000E+00  0.00000000E+00
  0.00000000E+00  0.00000000E+00  0.00000000E+00
  0.00000000E+00  0.00000000E+00  0.00000000E+00
  0.00000000E+00  0.00000000E+00  0.00000000E+00
  0.00000000E+00  0.00000000E+00  0.00000000E+00
  0.00000000E+00  0.00000000E+00  0.00000000E+00
  0.00000000E+00  0.00000000E+00  0.00000000E+00
  0.00000000E+00  0.00000000E+00  0.00000000E+00
  0.00000000E+00  0.00000000E+00  0.00000000E+00
  0.00000000E+00  0.00000000E+00  0.00000000E+00
  0.00000000E+00  0.00000000E+00  0.00000000E+00
  0.00000000E+00  0.00000000E+00  0.00000000E+00
  0.00000000E+00  0.00000000E+00  0.00000000E+00
  0.00000000E+00  0.00000000E+00  0.00000000E+00
  0.00000000E+00  0.00000000E+00  0.00000000E+00
  0.00000000E+00  0.00000000E+00  0.00000000E+00
  0.00000000E+00  0.00000000E+00  0.00000000E+00
  0.00000000E+00  0.00000000E+00  0.00000000E+00
  0.00000000E+00  0.00000000E+00  0.00000000E+00
  0.00000000E+00  0.00000000E+00  0.00000000E+00
  0.00000000E+00  0.00000000E+00  0.00000000E+00
  0.00000000E+00  0.00000000E+00  0.00000000E+00
  0.00000000E+00  0.00000000E+00  0.00000000E+00
  0.00000000E+00  0.00000000E+00  0.00000000E+00
  0.00000000E+00  0.00000000E+00  0.00000000E+00
