Cs4 Pb4 I12                             
   1.00000000000000     
    17.7788829803000006    0.0000000000000000    0.0000000000000000
     0.0000000000000000   17.9504604340000000    0.0000000000000000
     0.0000000000000000    0.0000000000000000   12.7661609649999992
   Cs   Pb   I    As
    16    16    48     1
Direct
  0.4962867962223600  0.4728586036906782  0.2196112372660480
  0.4955165535380111  0.9707533166960267  0.2492016282723341
  0.9938334160739017  0.4684613762641031  0.2496012898588597
  0.9943966161694057  0.9696009646621148  0.2501089567699646
  0.0056033754213971  0.0303990519087991  0.7498910686132612
  0.0061665666318781  0.5315386246157492  0.7503987205987321
  0.5044834383377422  0.0292467064761004  0.7507984043715528
  0.5037131115998663  0.5271411834948326  0.7803884520423993
  0.2451988101682853  0.2798999181556762  0.7492664541019050
  0.2464986331816816  0.7777437312804087  0.7484491267984936
  0.7475393629428543  0.2780756871813632  0.7539767395058634
  0.7445271685838907  0.7794501266066068  0.7515100679753420
  0.2554728197000846  0.2205498430260119  0.2484899572535989
  0.2524606805846909  0.7219243086388070  0.2460233153363962
  0.7535013960651394  0.2222562874387350  0.2515508781269228
  0.7548011378616653  0.7201000767039956  0.2507335388674477
  0.2490678686526518  0.0003663845309638 -0.0002965321138017
  0.2463955331297857  0.4998395772584508  0.0003025149441990
  0.7509322668699834 -0.0003663403892868  0.0002965133247868
  0.7536044750468658  0.5001605333798335 -0.0003024750072626
  0.0006473490810176  0.2494122147334530  0.0001522895512303
 -0.0006473128062152  0.7505878091674635 -0.0001522876932304
  0.4997447958771525  0.2466039406852019 -0.0009459667474063
  0.5002551442091879  0.7533963865240487  0.0009459525878471
  0.2486292328807385 -0.0009123827712079  0.5001880301487935
  0.2480022446103089  0.4972687833400791  0.5010523024880084
  0.7513707885155199  0.0009123819538162  0.4998119603981092
  0.7519977303374831  0.5027312241620274  0.4989477004606421
 -0.0000635555511225  0.2492039560918175  0.4994679855607495
  0.0000635493666224  0.7507960134454031  0.5005320123062098
  0.4968783652685234  0.2464119250533572  0.4984604027304260
  0.5031216670544193  0.7535880736764218  0.5015396392824524
  0.0356731903454213  0.2543567537106950  0.2498206247716552
  0.0338781722431295  0.7556114924637807  0.2498978473804631
  0.5323130621873833  0.2518455528997121  0.2500810991338276
  0.5358594705248874  0.7577827281303292  0.2497076889041332
  0.4641405118151693  0.2422173288843711  0.7502923636131178
  0.4676869603099899  0.7481542575628867  0.7499189311811105
  0.9661218354622642  0.2443885179193692  0.7501021805538901
  0.9643268336242781  0.7456432636477108  0.7501793810876163
  0.2811811640358313  0.4961245426345706  0.7505081000269367
  0.2841022402473624  0.9939712371297296  0.7499320642669558
  0.7867674813407000  0.4962105820046059  0.7498315007086049
  0.7858905608543777  0.9945934324464708  0.7503715053209883
  0.2141094373406514  0.0054065666234856  0.2496284950986253
  0.2132325240143819  0.5037894041804160  0.2501684869480919
  0.7158977694401778  0.0060287679699887  0.2500679664084978
  0.7188187181596949  0.5038754393584617  0.2494919204139382
  0.4015528242055920  0.0976040017583370  0.0357138440081041
  0.3911463431184370  0.6089806704196817  0.0360751165083530
  0.9025200920529609  0.0981756822890668  0.0356936534300052
  0.9034861451301145  0.5986090858624258  0.0357900129076318
  0.0965138578015249  0.4013909113748920  0.9642100099408454
  0.0974799259906557  0.9018243259456085  0.9643063808969419
  0.6088536452835723  0.3910193215602303  0.9639247439499576
  0.5984471995259143  0.9023960265499685  0.9642861837119139
  0.1524886293360951  0.1519468823566672  0.9640919676638785
  0.1489006042728644  0.6508110273753401  0.9634064120245520
  0.6508136498177445  0.1481826384232506  0.9646582059126475
  0.6493638927849943  0.6488717591190912  0.9693765703784333
  0.3506360464744197  0.3511282081603775  0.0306233687693124
  0.3491863244345520  0.8518173604109224  0.0353418133137327
  0.8510994149433752  0.3491889910807933  0.0365936065278735
  0.8475113882698325  0.8480531090111175  0.0359080544922425
  0.0971035391753424  0.4023292562702774  0.5354008996485096
  0.0978498233833735  0.9009927436451727  0.5355740651608690
  0.6109068304386097  0.3876812236096036  0.5450753992776322
  0.5974491419576149  0.9038203702062811  0.5352429413005020
  0.4025508754380087  0.0961796749082880  0.4647570931120213
  0.3890932171277151  0.6123187417705286  0.4549244155584730
  0.9021501620527955  0.0990072895105905  0.4644259597073165
  0.9028964266408670  0.5976707241815327  0.4645991375086158
  0.3450222616105433  0.3448884015807535  0.4687212139798318
  0.3484626870978063  0.8504158412026168  0.4633859150060909
  0.8505889533551038  0.3498345555703025  0.4642158542836514
  0.8481668653516888  0.8485612516102905  0.4645217118911616
  0.1518331428723376  0.1514387591082187  0.5354782916261172
  0.1494110709022939  0.6501654721772758  0.5357841602420156
  0.6515373152633330  0.1495841585138240  0.5366141258510880
  0.6549777661640207  0.6551116322005900  0.5312787881283563
  0.4999999981544275  0.5000000209876209  0.5000000654819953
 
  0.00000000E+00  0.00000000E+00  0.00000000E+00
  0.00000000E+00  0.00000000E+00  0.00000000E+00
  0.00000000E+00  0.00000000E+00  0.00000000E+00
  0.00000000E+00  0.00000000E+00  0.00000000E+00
  0.00000000E+00  0.00000000E+00  0.00000000E+00
  0.00000000E+00  0.00000000E+00  0.00000000E+00
  0.00000000E+00  0.00000000E+00  0.00000000E+00
  0.00000000E+00  0.00000000E+00  0.00000000E+00
  0.00000000E+00  0.00000000E+00  0.00000000E+00
  0.00000000E+00  0.00000000E+00  0.00000000E+00
  0.00000000E+00  0.00000000E+00  0.00000000E+00
  0.00000000E+00  0.00000000E+00  0.00000000E+00
  0.00000000E+00  0.00000000E+00  0.00000000E+00
  0.00000000E+00  0.00000000E+00  0.00000000E+00
  0.00000000E+00  0.00000000E+00  0.00000000E+00
  0.00000000E+00  0.00000000E+00  0.00000000E+00
  0.00000000E+00  0.00000000E+00  0.00000000E+00
  0.00000000E+00  0.00000000E+00  0.00000000E+00
  0.00000000E+00  0.00000000E+00  0.00000000E+00
  0.00000000E+00  0.00000000E+00  0.00000000E+00
  0.00000000E+00  0.00000000E+00  0.00000000E+00
  0.00000000E+00  0.00000000E+00  0.00000000E+00
  0.00000000E+00  0.00000000E+00  0.00000000E+00
  0.00000000E+00  0.00000000E+00  0.00000000E+00
  0.00000000E+00  0.00000000E+00  0.00000000E+00
  0.00000000E+00  0.00000000E+00  0.00000000E+00
  0.00000000E+00  0.00000000E+00  0.00000000E+00
  0.00000000E+00  0.00000000E+00  0.00000000E+00
  0.00000000E+00  0.00000000E+00  0.00000000E+00
  0.00000000E+00  0.00000000E+00  0.00000000E+00
  0.00000000E+00  0.00000000E+00  0.00000000E+00
  0.00000000E+00  0.00000000E+00  0.00000000E+00
  0.00000000E+00  0.00000000E+00  0.00000000E+00
  0.00000000E+00  0.00000000E+00  0.00000000E+00
  0.00000000E+00  0.00000000E+00  0.00000000E+00
  0.00000000E+00  0.00000000E+00  0.00000000E+00
  0.00000000E+00  0.00000000E+00  0.00000000E+00
  0.00000000E+00  0.00000000E+00  0.00000000E+00
  0.00000000E+00  0.00000000E+00  0.00000000E+00
  0.00000000E+00  0.00000000E+00  0.00000000E+00
  0.00000000E+00  0.00000000E+00  0.00000000E+00
  0.00000000E+00  0.00000000E+00  0.00000000E+00
  0.00000000E+00  0.00000000E+00  0.00000000E+00
  0.00000000E+00  0.00000000E+00  0.00000000E+00
  0.00000000E+00  0.00000000E+00  0.00000000E+00
  0.00000000E+00  0.00000000E+00  0.00000000E+00
  0.00000000E+00  0.00000000E+00  0.00000000E+00
  0.00000000E+00  0.00000000E+00  0.00000000E+00
  0.00000000E+00  0.00000000E+00  0.00000000E+00
  0.00000000E+00  0.00000000E+00  0.00000000E+00
  0.00000000E+00  0.00000000E+00  0.00000000E+00
  0.00000000E+00  0.00000000E+00  0.00000000E+00
  0.00000000E+00  0.00000000E+00  0.00000000E+00
  0.00000000E+00  0.00000000E+00  0.00000000E+00
  0.00000000E+00  0.00000000E+00  0.00000000E+00
  0.00000000E+00  0.00000000E+00  0.00000000E+00
  0.00000000E+00  0.00000000E+00  0.00000000E+00
  0.00000000E+00  0.00000000E+00  0.00000000E+00
  0.00000000E+00  0.00000000E+00  0.00000000E+00
  0.00000000E+00  0.00000000E+00  0.00000000E+00
  0.00000000E+00  0.00000000E+00  0.00000000E+00
  0.00000000E+00  0.00000000E+00  0.00000000E+00
  0.00000000E+00  0.00000000E+00  0.00000000E+00
  0.00000000E+00  0.00000000E+00  0.00000000E+00
  0.00000000E+00  0.00000000E+00  0.00000000E+00
  0.00000000E+00  0.00000000E+00  0.00000000E+00
  0.00000000E+00  0.00000000E+00  0.00000000E+00
  0.00000000E+00  0.00000000E+00  0.00000000E+00
  0.00000000E+00  0.00000000E+00  0.00000000E+00
  0.00000000E+00  0.00000000E+00  0.00000000E+00
  0.00000000E+00  0.00000000E+00  0.00000000E+00
  0.00000000E+00  0.00000000E+00  0.00000000E+00
  0.00000000E+00  0.00000000E+00  0.00000000E+00
  0.00000000E+00  0.00000000E+00  0.00000000E+00
  0.00000000E+00  0.00000000E+00  0.00000000E+00
  0.00000000E+00  0.00000000E+00  0.00000000E+00
  0.00000000E+00  0.00000000E+00  0.00000000E+00
  0.00000000E+00  0.00000000E+00  0.00000000E+00
  0.00000000E+00  0.00000000E+00  0.00000000E+00
  0.00000000E+00  0.00000000E+00  0.00000000E+00
  0.00000000E+00  0.00000000E+00  0.00000000E+00
