Cs4 Pb4 I12                             
   1.00000000000000     
    17.7788829803000006    0.0000000000000000    0.0000000000000000
     0.0000000000000000   17.9504604340000000    0.0000000000000000
     0.0000000000000000    0.0000000000000000   12.7661609649999992
   Cs   Pb   I    Se
    16    16    48     1
Direct
  0.4973287505340026  0.4723044574436530  0.2241253667035693
  0.4969016577573562  0.9732326177899274  0.2488679509448323
  0.9965430555201542  0.4731202984329235  0.2490692693706733
  0.9963461879057204  0.9734313256543748  0.2496859798769847
  0.0036538087206706  0.0265686847214974  0.7503140291782998
  0.0034569274381034  0.5268796942208869  0.7509307380570769
  0.5030983223201273  0.0267673928162049  0.7511320498176804
  0.5026712241447342  0.5276955481145588  0.7758745898841384
  0.2466383848664589  0.2753762381255300  0.7498195285185337
  0.2468536762069355  0.7754033406966997  0.7490868614573969
  0.7489779347528815  0.2742804352486523  0.7534251147832227
  0.7497238341091238  0.7793098493937569  0.7562201753682819
  0.2502761922615937  0.2206902094383376  0.2437798373223849
  0.2510220590570982  0.7257195832869104  0.2465748995085606
  0.7531463408317306  0.2245966755919335  0.2509131245745729
  0.7533615960296294  0.7246237866158864  0.2501804657825908
  0.2493399695842844 -0.0002896457859903 -0.0005653965475178
  0.2473756525616362  0.4992747393121132 -0.0004702430977937
  0.7506600134420075  0.0002896422807190  0.0005653979403368
  0.7526243510949069  0.5007252803346113  0.0004702397234557
 -0.0002224046083259  0.2493636012102410  0.0002087997189524
  0.0002223991801720  0.7506364175339176 -0.0002087969433424
  0.4993532062313602  0.2473170252451084  0.0002053679635760
  0.5006468171688526  0.7526830138026309 -0.0002053733723497
  0.2501655025193887 -0.0015640939508017  0.5000045898557652
  0.2490060920715065  0.4922570630586237  0.5001496515619694
  0.7498345294647992  0.0015640033392868  0.4999953973774511
  0.7509939598772488  0.5077428107168076  0.4998503338162205
 -0.0013754846891002  0.2504091885867323  0.4997528217912904
  0.0013755295545103  0.7495907437025811  0.5002471995982115
  0.4920258931398891  0.2483620729864990  0.4983263819439638
  0.5079742222509190  0.7516378895256481  0.5016736384666208
  0.0312021537022746  0.2559647824170750  0.2498768213970214
  0.0313143010224916  0.7563130849130449  0.2499443974713418
  0.5306056745713081  0.2538238256427961  0.2499328107244302
  0.5319015992803128  0.7571241218932229  0.2505164134101296
  0.4680983978292099  0.2428759003710654  0.7494835949818307
  0.4693943451300731  0.7461761895815952  0.7500671936455621
  0.9686856725547817  0.2436869317407588  0.7500555972549803
  0.9687978456410637  0.7440352331188372  0.7501231823020880
  0.2795615405165091  0.4941102678046136  0.7496910481994379
  0.2815057768842636  0.9937712100878292  0.7500976006131820
  0.7821805270077278  0.4942106898428990  0.7499590480273407
  0.7820069028618531  0.9946690977592189  0.7500895582275842
  0.2179930901283393  0.0053309147099231  0.2499104551847028
  0.2178194584822153  0.5057893443690217  0.2500409670998605
  0.7184942038055223  0.0062287882298607  0.2499023983024816
  0.7204384459767791  0.5058897601679748  0.2503089384029515
  0.4006339454315339  0.0979653951572118  0.0318792585009357
  0.3931797763263702  0.6072971971845286  0.0291798270355008
  0.9011662614029232  0.0993492940841316  0.0316124392628413
  0.9024737482615021  0.5997644317436815  0.0316669286715633
  0.0975262488686043  0.4002355847833422  0.9683330507368749
  0.0988337393024740  0.9006507342416830  0.9683875726035059
  0.6068202005256791  0.3927028304907975  0.9708201377786121
  0.5993660511627382  0.9020346303113695  0.9681207402813284
  0.1511176417892284  0.1505925117253870  0.9678927149703977
  0.1501035122391492  0.6509904283740462  0.9683775877865221
  0.6511642220445369  0.1493908842870600  0.9689135289769503
  0.6505967510381095  0.6502111925536326  0.9706154261399494
  0.3494032374797277  0.3497888339710150  0.0293845682669417
  0.3488357737918913  0.8506091286495546  0.0310864622358754
  0.8498964789334742  0.3490095897180576  0.0316224044619069
  0.8488823530912269  0.8494074950993606  0.0321072681943802
  0.0948782553107493  0.4029454551472627  0.5325690696871506
  0.0979788044248844  0.9012685645426678  0.5325630974601144
  0.6093315685245658  0.3898014679634937  0.5344593430987563
  0.5965084406742583  0.9051451807937988  0.5318516351061151
  0.4034915295043306  0.0948548376752763  0.4681483716763581
  0.3906684578797553  0.6101985307391993  0.4655406780117152
  0.9020211517347966  0.0987314461396491  0.4674369064764578
  0.9051217289228136  0.5970545562906553  0.4674309549008325
  0.3305012318156430  0.3315849225485399  0.4734311025167468
  0.3513732718910961  0.8478556646891846  0.4688927776717809
  0.8479293054596244  0.3519386454218564  0.4697722215053053
  0.8507871197320258  0.8514296975796349  0.4678327675101461
  0.1492128497123693  0.1485703173167702  0.5321672439573948
  0.1520706901902389  0.6480613621736164  0.5302277749232662
  0.6486267385157078  0.1521443432066372  0.5311072448533146
  0.6694987945107913  0.6684150698036327  0.5265689095458663
  0.5000000008120877  0.5000000174530411  0.4999999850040584
 
  0.00000000E+00  0.00000000E+00  0.00000000E+00
  0.00000000E+00  0.00000000E+00  0.00000000E+00
  0.00000000E+00  0.00000000E+00  0.00000000E+00
  0.00000000E+00  0.00000000E+00  0.00000000E+00
  0.00000000E+00  0.00000000E+00  0.00000000E+00
  0.00000000E+00  0.00000000E+00  0.00000000E+00
  0.00000000E+00  0.00000000E+00  0.00000000E+00
  0.00000000E+00  0.00000000E+00  0.00000000E+00
  0.00000000E+00  0.00000000E+00  0.00000000E+00
  0.00000000E+00  0.00000000E+00  0.00000000E+00
  0.00000000E+00  0.00000000E+00  0.00000000E+00
  0.00000000E+00  0.00000000E+00  0.00000000E+00
  0.00000000E+00  0.00000000E+00  0.00000000E+00
  0.00000000E+00  0.00000000E+00  0.00000000E+00
  0.00000000E+00  0.00000000E+00  0.00000000E+00
  0.00000000E+00  0.00000000E+00  0.00000000E+00
  0.00000000E+00  0.00000000E+00  0.00000000E+00
  0.00000000E+00  0.00000000E+00  0.00000000E+00
  0.00000000E+00  0.00000000E+00  0.00000000E+00
  0.00000000E+00  0.00000000E+00  0.00000000E+00
  0.00000000E+00  0.00000000E+00  0.00000000E+00
  0.00000000E+00  0.00000000E+00  0.00000000E+00
  0.00000000E+00  0.00000000E+00  0.00000000E+00
  0.00000000E+00  0.00000000E+00  0.00000000E+00
  0.00000000E+00  0.00000000E+00  0.00000000E+00
  0.00000000E+00  0.00000000E+00  0.00000000E+00
  0.00000000E+00  0.00000000E+00  0.00000000E+00
  0.00000000E+00  0.00000000E+00  0.00000000E+00
  0.00000000E+00  0.00000000E+00  0.00000000E+00
  0.00000000E+00  0.00000000E+00  0.00000000E+00
  0.00000000E+00  0.00000000E+00  0.00000000E+00
  0.00000000E+00  0.00000000E+00  0.00000000E+00
  0.00000000E+00  0.00000000E+00  0.00000000E+00
  0.00000000E+00  0.00000000E+00  0.00000000E+00
  0.00000000E+00  0.00000000E+00  0.00000000E+00
  0.00000000E+00  0.00000000E+00  0.00000000E+00
  0.00000000E+00  0.00000000E+00  0.00000000E+00
  0.00000000E+00  0.00000000E+00  0.00000000E+00
  0.00000000E+00  0.00000000E+00  0.00000000E+00
  0.00000000E+00  0.00000000E+00  0.00000000E+00
  0.00000000E+00  0.00000000E+00  0.00000000E+00
  0.00000000E+00  0.00000000E+00  0.00000000E+00
  0.00000000E+00  0.00000000E+00  0.00000000E+00
  0.00000000E+00  0.00000000E+00  0.00000000E+00
  0.00000000E+00  0.00000000E+00  0.00000000E+00
  0.00000000E+00  0.00000000E+00  0.00000000E+00
  0.00000000E+00  0.00000000E+00  0.00000000E+00
  0.00000000E+00  0.00000000E+00  0.00000000E+00
  0.00000000E+00  0.00000000E+00  0.00000000E+00
  0.00000000E+00  0.00000000E+00  0.00000000E+00
  0.00000000E+00  0.00000000E+00  0.00000000E+00
  0.00000000E+00  0.00000000E+00  0.00000000E+00
  0.00000000E+00  0.00000000E+00  0.00000000E+00
  0.00000000E+00  0.00000000E+00  0.00000000E+00
  0.00000000E+00  0.00000000E+00  0.00000000E+00
  0.00000000E+00  0.00000000E+00  0.00000000E+00
  0.00000000E+00  0.00000000E+00  0.00000000E+00
  0.00000000E+00  0.00000000E+00  0.00000000E+00
  0.00000000E+00  0.00000000E+00  0.00000000E+00
  0.00000000E+00  0.00000000E+00  0.00000000E+00
  0.00000000E+00  0.00000000E+00  0.00000000E+00
  0.00000000E+00  0.00000000E+00  0.00000000E+00
  0.00000000E+00  0.00000000E+00  0.00000000E+00
  0.00000000E+00  0.00000000E+00  0.00000000E+00
  0.00000000E+00  0.00000000E+00  0.00000000E+00
  0.00000000E+00  0.00000000E+00  0.00000000E+00
  0.00000000E+00  0.00000000E+00  0.00000000E+00
  0.00000000E+00  0.00000000E+00  0.00000000E+00
  0.00000000E+00  0.00000000E+00  0.00000000E+00
  0.00000000E+00  0.00000000E+00  0.00000000E+00
  0.00000000E+00  0.00000000E+00  0.00000000E+00
  0.00000000E+00  0.00000000E+00  0.00000000E+00
  0.00000000E+00  0.00000000E+00  0.00000000E+00
  0.00000000E+00  0.00000000E+00  0.00000000E+00
  0.00000000E+00  0.00000000E+00  0.00000000E+00
  0.00000000E+00  0.00000000E+00  0.00000000E+00
  0.00000000E+00  0.00000000E+00  0.00000000E+00
  0.00000000E+00  0.00000000E+00  0.00000000E+00
  0.00000000E+00  0.00000000E+00  0.00000000E+00
  0.00000000E+00  0.00000000E+00  0.00000000E+00
  0.00000000E+00  0.00000000E+00  0.00000000E+00
