Cs4 Pb4 I12                             
   1.00000000000000     
    17.7788829803000006    0.0000000000000000    0.0000000000000000
     0.0000000000000000   17.9504604340000000    0.0000000000000000
     0.0000000000000000    0.0000000000000000   12.7661609649999992
   Cs   Pb   I    Cl
    16    16    48     1
Direct
  0.4943815635595257  0.4740921319206953  0.2367703218430124
  0.4964078136000619  0.9722108256631655  0.2487647627802209
  0.9958310135030630  0.4716935654609546  0.2490432247807286
  0.9957968262849918  0.9724157796651524  0.2496992045396541
  0.0042029609744409  0.0275845023144393  0.7503009708513526
  0.0041689421361926  0.5283066665252291  0.7509568346826219
  0.5035921385360175  0.0277891643948710  0.7512353342006369
  0.5056184899303380  0.5259077975799734  0.7632297160331755
  0.2456569253461576  0.2768092048492427  0.7500081614664941
  0.2469076812889308  0.7756359841131160  0.7471288421672369
  0.7496626915395773  0.2740817866612974  0.7540123234415841
  0.7481426209893892  0.7791933904799595  0.7546516210930507
  0.2518574264825375  0.2208066836543495  0.2453483642214485
  0.2503376376574552  0.7259180144125916  0.2459884057451005
  0.7530922439841092  0.2243639629730302  0.2528712061290189
  0.7543431109970474  0.7231907917444446  0.2499917016856186
  0.2494858820953164 -0.0001793941547059 -0.0003176726990867
  0.2484703325207622  0.4996173105333140 -0.0008493007587698
  0.7505141712177696  0.0001795772919096  0.0003174065779747
  0.7515296376392375  0.5003826120116828  0.0008491487297156
 -0.0001083617670231  0.2496836776684773  0.0000510457674985
  0.0001082733878763  0.7503165939821662 -0.0000513398112943
  0.4995462221692660  0.2486725081538409  0.0001512520621631
  0.5004540452393513  0.7513281187848654  0.9998484279580728
  0.2492861289177420  0.9993185170781153  0.5001909498482987
  0.2477164306089006  0.4946028650827766  0.4997529671283658
  0.7507139141378738  0.0006815991590197  0.4998090971014886
  0.7522835563750750  0.5053968663285142  0.5002470460132569
 -0.0004424771849901  0.2495332209410778  0.4994602757270082
  0.0004423407095463  0.7504668561938307  0.5005396987724295
  0.4940285369953353  0.2476876354835538  0.4990240008941546
  0.5059721222417690  0.7523123965639892  0.5009762855901888
  0.0325796884352239  0.2554390052376939  0.2496606022323737
  0.0314453281083362  0.7561919591076010  0.2499668448185535
  0.5309758336503986  0.2553849617966206  0.2505260590260127
  0.5338394424805868  0.7567804020803095  0.2500284119377562
  0.4661606681324551  0.2432196317613303  0.7499715835953262
  0.4690241618147511  0.7446150546028348  0.7494738773314013
  0.9685533423162244  0.2438081920066862  0.7500331575073488
  0.9674202031059047  0.7445610161030278  0.7503393250905127
  0.2820941626169289  0.4941806476257633  0.7489680587242009
  0.2823295012404651  0.9938340872428599  0.7501393615724913
  0.7837039983561946  0.4952522243585228  0.7509889928664375
  0.7830477971671599  0.9948816233624126  0.7501694527867885
  0.2169521079598317  0.0051185265197425  0.2498305247700250
  0.2162957138409091  0.5047466115281825  0.2490109916718584
  0.7176704530258676  0.0061659112515615  0.2498605938382527
  0.7179058204165361  0.5058193358867527  0.2510319222629991
  0.4010646474837060  0.0985884371134525  0.0329930341128631
  0.3974193914677813  0.6030778818809401  0.0297904838870731
  0.9013851953291655  0.0991598407607772  0.0325775578386326
  0.9018994890093782  0.5993481307005549  0.0333442886808197
  0.0981003896738335  0.4006518157248659  0.9666556068917497
  0.0986146827540762  0.9008401787126632  0.9674223591354864
  0.6025809359323470  0.3969218291636119  0.9702088738879545
  0.5989353726640690  0.9014116851791923  0.9670069252297068
  0.1513017067949965  0.1507171535400804  0.9669808316564665
  0.1507362013205109  0.6508758428940941  0.9665861342086262
  0.6507910267333032  0.1499003440538337  0.9684691343514126
  0.6508321327809480  0.6502464579215728  0.9684605738912545
  0.3491678523947080  0.3497535538996687  0.0315393636989975
  0.3492095250792804  0.8501003106396660  0.0315295686549365
  0.8492633130997669  0.3491238302853220  0.0334128938093539
  0.8486981771921780  0.8492829193336863  0.0330190546312293
  0.0963037028792437  0.4026217520126283  0.5338295434527126
  0.0985432058907577  0.9008677897213068  0.5331756845162505
  0.6204542952439980  0.3792325935808007  0.5406697765048074
  0.5967669787252067  0.9034986090804172  0.5330822258010920
  0.4032330268994709  0.0965014531178666  0.4669177561162384
  0.3795463641433170  0.6207668506969312  0.4593315016590462
  0.9014566834618537  0.0991322199778379  0.4668243348956161
  0.9036962331948094  0.5973782645710414  0.4661705294174678
  0.3380786685212140  0.3388441795233968  0.4707287823246504
  0.3514894831138408  0.8516908801085860  0.4664762149890036
  0.8522090411846976  0.3523561126529086  0.4661590768038637
  0.8493865354761043  0.8501167520761016  0.4667475576940879
  0.1506133643619178  0.1498832584942264  0.5332525113379601
  0.1477906044883631  0.6476436461859638  0.5338416881684472
  0.6485111710735845  0.1483096107444211  0.5335249283186293
  0.6619213789991155  0.6611558863563268  0.5292712459251901
  0.5000001758510598  0.4999997993083821  0.4999999289136085
 
  0.00000000E+00  0.00000000E+00  0.00000000E+00
  0.00000000E+00  0.00000000E+00  0.00000000E+00
  0.00000000E+00  0.00000000E+00  0.00000000E+00
  0.00000000E+00  0.00000000E+00  0.00000000E+00
  0.00000000E+00  0.00000000E+00  0.00000000E+00
  0.00000000E+00  0.00000000E+00  0.00000000E+00
  0.00000000E+00  0.00000000E+00  0.00000000E+00
  0.00000000E+00  0.00000000E+00  0.00000000E+00
  0.00000000E+00  0.00000000E+00  0.00000000E+00
  0.00000000E+00  0.00000000E+00  0.00000000E+00
  0.00000000E+00  0.00000000E+00  0.00000000E+00
  0.00000000E+00  0.00000000E+00  0.00000000E+00
  0.00000000E+00  0.00000000E+00  0.00000000E+00
  0.00000000E+00  0.00000000E+00  0.00000000E+00
  0.00000000E+00  0.00000000E+00  0.00000000E+00
  0.00000000E+00  0.00000000E+00  0.00000000E+00
  0.00000000E+00  0.00000000E+00  0.00000000E+00
  0.00000000E+00  0.00000000E+00  0.00000000E+00
  0.00000000E+00  0.00000000E+00  0.00000000E+00
  0.00000000E+00  0.00000000E+00  0.00000000E+00
  0.00000000E+00  0.00000000E+00  0.00000000E+00
  0.00000000E+00  0.00000000E+00  0.00000000E+00
  0.00000000E+00  0.00000000E+00  0.00000000E+00
  0.00000000E+00  0.00000000E+00  0.00000000E+00
  0.00000000E+00  0.00000000E+00  0.00000000E+00
  0.00000000E+00  0.00000000E+00  0.00000000E+00
  0.00000000E+00  0.00000000E+00  0.00000000E+00
  0.00000000E+00  0.00000000E+00  0.00000000E+00
  0.00000000E+00  0.00000000E+00  0.00000000E+00
  0.00000000E+00  0.00000000E+00  0.00000000E+00
  0.00000000E+00  0.00000000E+00  0.00000000E+00
  0.00000000E+00  0.00000000E+00  0.00000000E+00
  0.00000000E+00  0.00000000E+00  0.00000000E+00
  0.00000000E+00  0.00000000E+00  0.00000000E+00
  0.00000000E+00  0.00000000E+00  0.00000000E+00
  0.00000000E+00  0.00000000E+00  0.00000000E+00
  0.00000000E+00  0.00000000E+00  0.00000000E+00
  0.00000000E+00  0.00000000E+00  0.00000000E+00
  0.00000000E+00  0.00000000E+00  0.00000000E+00
  0.00000000E+00  0.00000000E+00  0.00000000E+00
  0.00000000E+00  0.00000000E+00  0.00000000E+00
  0.00000000E+00  0.00000000E+00  0.00000000E+00
  0.00000000E+00  0.00000000E+00  0.00000000E+00
  0.00000000E+00  0.00000000E+00  0.00000000E+00
  0.00000000E+00  0.00000000E+00  0.00000000E+00
  0.00000000E+00  0.00000000E+00  0.00000000E+00
  0.00000000E+00  0.00000000E+00  0.00000000E+00
  0.00000000E+00  0.00000000E+00  0.00000000E+00
  0.00000000E+00  0.00000000E+00  0.00000000E+00
  0.00000000E+00  0.00000000E+00  0.00000000E+00
  0.00000000E+00  0.00000000E+00  0.00000000E+00
  0.00000000E+00  0.00000000E+00  0.00000000E+00
  0.00000000E+00  0.00000000E+00  0.00000000E+00
  0.00000000E+00  0.00000000E+00  0.00000000E+00
  0.00000000E+00  0.00000000E+00  0.00000000E+00
  0.00000000E+00  0.00000000E+00  0.00000000E+00
  0.00000000E+00  0.00000000E+00  0.00000000E+00
  0.00000000E+00  0.00000000E+00  0.00000000E+00
  0.00000000E+00  0.00000000E+00  0.00000000E+00
  0.00000000E+00  0.00000000E+00  0.00000000E+00
  0.00000000E+00  0.00000000E+00  0.00000000E+00
  0.00000000E+00  0.00000000E+00  0.00000000E+00
  0.00000000E+00  0.00000000E+00  0.00000000E+00
  0.00000000E+00  0.00000000E+00  0.00000000E+00
  0.00000000E+00  0.00000000E+00  0.00000000E+00
  0.00000000E+00  0.00000000E+00  0.00000000E+00
  0.00000000E+00  0.00000000E+00  0.00000000E+00
  0.00000000E+00  0.00000000E+00  0.00000000E+00
  0.00000000E+00  0.00000000E+00  0.00000000E+00
  0.00000000E+00  0.00000000E+00  0.00000000E+00
  0.00000000E+00  0.00000000E+00  0.00000000E+00
  0.00000000E+00  0.00000000E+00  0.00000000E+00
  0.00000000E+00  0.00000000E+00  0.00000000E+00
  0.00000000E+00  0.00000000E+00  0.00000000E+00
  0.00000000E+00  0.00000000E+00  0.00000000E+00
  0.00000000E+00  0.00000000E+00  0.00000000E+00
  0.00000000E+00  0.00000000E+00  0.00000000E+00
  0.00000000E+00  0.00000000E+00  0.00000000E+00
  0.00000000E+00  0.00000000E+00  0.00000000E+00
  0.00000000E+00  0.00000000E+00  0.00000000E+00
  0.00000000E+00  0.00000000E+00  0.00000000E+00
