Cs4 Pb4 I12                             
   1.00000000000000     
    17.7788829803000006    0.0000000000000000    0.0000000000000000
     0.0000000000000000   17.9504604340000000    0.0000000000000000
     0.0000000000000000    0.0000000000000000   12.7661609649999992
   Cs   Pb   I    Te
    16    16    48     1
Direct
  0.4976256674952597  0.4722239630619270  0.2115045994613355
  0.4966844381296411  0.9725604033289319  0.2497599084582759
  0.9961689048958532  0.4721443086809801  0.2498698639970018
  0.9956825867308196  0.9728881645995011  0.2507739315354775
  0.0043175916258205  0.0271117976138329  0.7492260332369358
  0.0038311349073797  0.5278557358342049  0.7501300273346716
  0.5033149693380243  0.0274385722201132  0.7502403904928757
  0.5023743267284722  0.5277760376127195  0.7884953476815446
  0.2449820370640387  0.2748198040259214  0.7515475487310397
  0.2468832858914633  0.7747251732719500  0.7467789838407088
  0.7493550190087097  0.2736755343488976  0.7529217265683052
  0.7506522801628427  0.7812347411917594  0.7609541150063627
  0.2493471561241029  0.2187655695016060  0.2390464621727250
  0.2506449965277815  0.7263243642602982  0.2470782590653019
  0.7531165813401770  0.2252747410674525  0.2532209790033212
  0.7550180358174582  0.7251802977555102  0.2484525325320625
  0.2489904656672969 -0.0006128196034593 -0.0008830440005529
  0.2462212362423916  0.4993233963328536  0.9994273460313651
  0.7510097027742522  0.0006131540622987  0.0008831613604397
  0.7537789543928427  0.5006766454519619  0.0005726269772304
 -0.0003617957972183  0.2492845701917948  0.0001072337224219
  0.0003619426040519  0.7507154484310860  0.9998925863211627
  0.4994055253002875  0.2461438368850369 -0.0003043050438174
  0.5005945173482994  0.7538559637814585  0.0003042696409446
  0.2504033558525840 -0.0017982364385795  0.5001088595029954
  0.2502686306095647  0.4903922733886907  0.5002592649876113
  0.7495964826145287  0.0017984659059031  0.4998911239815034
  0.7497312055537800  0.5096078372405852  0.4997406079875259
 -0.0014875231700099  0.2509294876259487  0.4995792144901246
  0.0014872995936900  0.7490707230720125  0.5004207290036957
  0.4899574204153140  0.2490324960200280  0.4979997312681030
  0.5100423597480734  0.7509676047760354  0.5020003105908548
  0.0312880228592864  0.2553589978548490  0.2499720658341858
  0.0311506678504722  0.7560124850412420  0.2501814868932192
  0.5297391500294104  0.2538495688633437  0.2494676851674282
  0.5329827647795958  0.7570087604372105  0.2497715956296352
  0.4670172569575506  0.2429908521431492  0.7502283221330143
  0.4702608603230313  0.7461505521330161  0.7505322974896502
  0.9688494457695730  0.2439875127355177  0.7498184902401565
  0.9687119860254194  0.7446410767035300  0.7500278806937111
  0.2804362204438183  0.4942887021935564  0.7503064699836554
  0.2817730236190630  0.9938684927477276  0.7498242659775765
  0.7825385064396219  0.4953884117004504  0.7506311148019317
  0.7826019621992338  0.9960112751481118  0.7499782398835753
  0.2173981716633272  0.0039890200943382  0.2500217419828334
  0.2174615138357248  0.5046115517634447  0.2493688504818601
  0.7182269408109792  0.0061314756303348  0.2501757356638499
  0.7195638282887740  0.5057113308783699  0.2496935482962385
  0.4008007821667465  0.0976919279960670  0.0327319941598506
  0.3895271506537547  0.6107665786117361  0.0324296772171592
  0.9015269417180928  0.0991250972861902  0.0323793490837464
  0.9028630027655061  0.5995715400330791  0.0327320127498195
  0.0971370233886702  0.4004284125567769  0.9672679465568442
  0.0984731759179792  0.9008749162025484  0.9676207323784153
  0.6104728924149441  0.3892335354510802  0.9675701865855860
  0.5991993208682280  0.9023081440626607  0.9672681258195535
  0.1508911255623923  0.1503499110916765  0.9670169438047781
  0.1494036327179582  0.6507125950990621  0.9671856651523151
  0.6507560732880674  0.1486067760990900  0.9685774423259641
  0.6495760774178471  0.6492272584846264  0.9714297279346248
  0.3504237344599727  0.3507726958884685  0.0285705660023074
  0.3492439100914937  0.8513932188062602  0.0314225712793668
  0.8505964623407405  0.3492873361303856  0.0328143597979615
  0.8491089860875363  0.8496501464414628  0.0329832414127928
  0.0952033562622884  0.4037510290826085  0.5326687471836701
  0.0989081342429625  0.9002398702573270  0.5326765329614679
  0.6167030902869777  0.3821921997709443  0.5373479859609628
  0.5956768886246765  0.9053124029104754  0.5316115576706409
  0.4043232036995950  0.0946875513681135  0.4683880956905862
  0.3832969786986847  0.6178076857039643  0.4626519328328280
  0.9010920349308832  0.0997600984086981  0.4673233289419019
  0.9047965733002270  0.5962488797249582  0.4673312552918442
  0.3264487894993955  0.3273426992650990  0.4751531862336739
  0.3525289429983408  0.8504208235394891  0.4683497944315557
  0.8507130124173578  0.3531518187931662  0.4685141216507229
  0.8519552227163828  0.8525967340049994  0.4669430110771463
  0.1480449613196555  0.1474033414947704  0.5330567994929649
  0.1492870431286473  0.6468481542690513  0.5314858266517365
  0.6474711365861584  0.1495791850786535  0.5316501122548645
  0.6735511980709602  0.6726576078072863  0.5248469868475688
  0.5000000459244152  0.4999999807117516  0.4999999814727054
 
  0.00000000E+00  0.00000000E+00  0.00000000E+00
  0.00000000E+00  0.00000000E+00  0.00000000E+00
  0.00000000E+00  0.00000000E+00  0.00000000E+00
  0.00000000E+00  0.00000000E+00  0.00000000E+00
  0.00000000E+00  0.00000000E+00  0.00000000E+00
  0.00000000E+00  0.00000000E+00  0.00000000E+00
  0.00000000E+00  0.00000000E+00  0.00000000E+00
  0.00000000E+00  0.00000000E+00  0.00000000E+00
  0.00000000E+00  0.00000000E+00  0.00000000E+00
  0.00000000E+00  0.00000000E+00  0.00000000E+00
  0.00000000E+00  0.00000000E+00  0.00000000E+00
  0.00000000E+00  0.00000000E+00  0.00000000E+00
  0.00000000E+00  0.00000000E+00  0.00000000E+00
  0.00000000E+00  0.00000000E+00  0.00000000E+00
  0.00000000E+00  0.00000000E+00  0.00000000E+00
  0.00000000E+00  0.00000000E+00  0.00000000E+00
  0.00000000E+00  0.00000000E+00  0.00000000E+00
  0.00000000E+00  0.00000000E+00  0.00000000E+00
  0.00000000E+00  0.00000000E+00  0.00000000E+00
  0.00000000E+00  0.00000000E+00  0.00000000E+00
  0.00000000E+00  0.00000000E+00  0.00000000E+00
  0.00000000E+00  0.00000000E+00  0.00000000E+00
  0.00000000E+00  0.00000000E+00  0.00000000E+00
  0.00000000E+00  0.00000000E+00  0.00000000E+00
  0.00000000E+00  0.00000000E+00  0.00000000E+00
  0.00000000E+00  0.00000000E+00  0.00000000E+00
  0.00000000E+00  0.00000000E+00  0.00000000E+00
  0.00000000E+00  0.00000000E+00  0.00000000E+00
  0.00000000E+00  0.00000000E+00  0.00000000E+00
  0.00000000E+00  0.00000000E+00  0.00000000E+00
  0.00000000E+00  0.00000000E+00  0.00000000E+00
  0.00000000E+00  0.00000000E+00  0.00000000E+00
  0.00000000E+00  0.00000000E+00  0.00000000E+00
  0.00000000E+00  0.00000000E+00  0.00000000E+00
  0.00000000E+00  0.00000000E+00  0.00000000E+00
  0.00000000E+00  0.00000000E+00  0.00000000E+00
  0.00000000E+00  0.00000000E+00  0.00000000E+00
  0.00000000E+00  0.00000000E+00  0.00000000E+00
  0.00000000E+00  0.00000000E+00  0.00000000E+00
  0.00000000E+00  0.00000000E+00  0.00000000E+00
  0.00000000E+00  0.00000000E+00  0.00000000E+00
  0.00000000E+00  0.00000000E+00  0.00000000E+00
  0.00000000E+00  0.00000000E+00  0.00000000E+00
  0.00000000E+00  0.00000000E+00  0.00000000E+00
  0.00000000E+00  0.00000000E+00  0.00000000E+00
  0.00000000E+00  0.00000000E+00  0.00000000E+00
  0.00000000E+00  0.00000000E+00  0.00000000E+00
  0.00000000E+00  0.00000000E+00  0.00000000E+00
  0.00000000E+00  0.00000000E+00  0.00000000E+00
  0.00000000E+00  0.00000000E+00  0.00000000E+00
  0.00000000E+00  0.00000000E+00  0.00000000E+00
  0.00000000E+00  0.00000000E+00  0.00000000E+00
  0.00000000E+00  0.00000000E+00  0.00000000E+00
  0.00000000E+00  0.00000000E+00  0.00000000E+00
  0.00000000E+00  0.00000000E+00  0.00000000E+00
  0.00000000E+00  0.00000000E+00  0.00000000E+00
  0.00000000E+00  0.00000000E+00  0.00000000E+00
  0.00000000E+00  0.00000000E+00  0.00000000E+00
  0.00000000E+00  0.00000000E+00  0.00000000E+00
  0.00000000E+00  0.00000000E+00  0.00000000E+00
  0.00000000E+00  0.00000000E+00  0.00000000E+00
  0.00000000E+00  0.00000000E+00  0.00000000E+00
  0.00000000E+00  0.00000000E+00  0.00000000E+00
  0.00000000E+00  0.00000000E+00  0.00000000E+00
  0.00000000E+00  0.00000000E+00  0.00000000E+00
  0.00000000E+00  0.00000000E+00  0.00000000E+00
  0.00000000E+00  0.00000000E+00  0.00000000E+00
  0.00000000E+00  0.00000000E+00  0.00000000E+00
  0.00000000E+00  0.00000000E+00  0.00000000E+00
  0.00000000E+00  0.00000000E+00  0.00000000E+00
  0.00000000E+00  0.00000000E+00  0.00000000E+00
  0.00000000E+00  0.00000000E+00  0.00000000E+00
  0.00000000E+00  0.00000000E+00  0.00000000E+00
  0.00000000E+00  0.00000000E+00  0.00000000E+00
  0.00000000E+00  0.00000000E+00  0.00000000E+00
  0.00000000E+00  0.00000000E+00  0.00000000E+00
  0.00000000E+00  0.00000000E+00  0.00000000E+00
  0.00000000E+00  0.00000000E+00  0.00000000E+00
  0.00000000E+00  0.00000000E+00  0.00000000E+00
  0.00000000E+00  0.00000000E+00  0.00000000E+00
  0.00000000E+00  0.00000000E+00  0.00000000E+00
