Cs4 Pb4 I12                             
   1.00000000000000     
    17.7788829803000006    0.0000000000000000    0.0000000000000000
     0.0000000000000000   17.9504604340000000    0.0000000000000000
     0.0000000000000000    0.0000000000000000   12.7661609649999992
   Cs   Pb   I    Br
    16    16    48     1
Direct
  0.4952162303563402  0.4720895734892457  0.2242894551185715
  0.4964591090406029  0.9718526021619885  0.2498170426447093
  0.9959268131020513  0.4712339332446978  0.2500180584031574
  0.9957634124456878  0.9720865971896873  0.2502694332179873
  0.0042365919541298  0.0279134426827997  0.7497306991412587
  0.0040731872784126  0.5287660757607138  0.7499819594025913
  0.5035408913152661  0.0281474032496924  0.7501829626381489
  0.5047837660294044  0.5279104225349524  0.7757105239633008
  0.2453854962622861  0.2769440724091665  0.7498572986345482
  0.2471274602683105  0.7754675674786127  0.7452285681978866
  0.7509955288386392  0.2728588448420008  0.7548706723540775
  0.7491011477086340  0.7805828489804079  0.7566037022837144
  0.2508988624299600  0.2194171574948774  0.2433962906186398
  0.2490044655516288  0.7271411904749254  0.2451293655434152
  0.7528725578325991  0.2245324421837539  0.2547714202955830
  0.7546144979174535  0.7230559422194875  0.2501426978293071
  0.2492354397701167 -0.0002463601315322 -0.0006439457675375
  0.2471706367072484  0.4994240788054430 -0.0011902804802555
  0.7507645552739710  0.0002463577235631  0.0006439424034169
  0.7528293641267039  0.5005759281881010  0.0011902000430882
 -0.0001447689802619  0.2494413031138254  0.0002106569807538
  0.0001447641068420  0.7505587041086499 -0.0002106400402522
  0.4992805876873027  0.2471440031484523 -0.0002174639407467
  0.5007194103847236  0.7528559830119868  0.0002174603608708
  0.2498739835744246 -0.0003109901634782  0.5003010738466644
  0.2485933037914467  0.4944720365006849  0.4994314120495429
  0.7501260151698097  0.0003109829589258  0.4996989276983894
  0.7514066577627719  0.5055279592075791  0.5005685026759914
  0.0001072208705074  0.2502218185861576  0.4993357051326947
 -0.0001072240942106  0.7497781710588756  0.5006643071641799
  0.4937873351895913  0.2483060837285047  0.4990253838153990
  0.5062126785982970  0.7516938990548442  0.5009746032205665
  0.0329599937859972  0.2552835381291367  0.2495656580971020
  0.0309389915434571  0.7562680827177303  0.2500659507305100
  0.5307540719797719  0.2550047939660771  0.2499979789444327
  0.5343641321466819  0.7569565816954067  0.2497237438314826
  0.4656358652976421  0.2430434346122427  0.7502762502920727
  0.4692459513467373  0.7449952140436710  0.7500020139566963
  0.9690609949411765  0.2437319480060176  0.7499340607410989
  0.9670400126344203  0.7447164662763875  0.7504343522952907
  0.2827267725037061  0.4940808711253996  0.7489789981826399
  0.2824556579152214  0.9937956454962757  0.7501524379389142
  0.7840354924777345  0.4954121067499074  0.7514866758246282
  0.7834582129925934  0.9950056533206115  0.7501185505403659
  0.2165417901571699  0.0049943384172121  0.2498814539420071
  0.2159644981624381  0.5045879281837045  0.2485133213668522
  0.7175443495172612  0.0062043439504259  0.2498475636555132
  0.7172732213158615  0.5059191518918570  0.2510209919959033
  0.4009846246476941  0.0977197449865976  0.0334826609352914
  0.3940391834793437  0.6063695741925963  0.0297451971957124
  0.9016534678907180  0.0990225317239149  0.0328264397385848
  0.9026923047011258  0.5993987894502534  0.0340288016042231
  0.0973077089066686  0.4006012135149535  0.9659711862145856
  0.0983465352262998  0.9009774682754980  0.9671735843320428
  0.6059608210422031  0.3936304337820590  0.9702548057458920
  0.5990153701797003  0.9022802550327573  0.9665173332450493
  0.1514721703635984  0.1509515543552090  0.9665574426812802
  0.1503149786216841  0.6512549137896427  0.9659529207927050
  0.6509866939650629  0.1493022760235059  0.9686286797715606
  0.6503349482329048  0.6497891854013229  0.9689192915675645
  0.3496650584693043  0.3502108255811060  0.0310807037588595
  0.3490133208924711  0.8506977209222376  0.0313713069516285
  0.8496850309396631  0.3487451035831147  0.0340470831147926
  0.8485278326159248  0.8490484350299345  0.0334425364218513
  0.0958153162623625  0.4025786376995142  0.5340987482058899
  0.0984533761775024  0.9009116305848096  0.5332711143262915
  0.6250981122308122  0.3746461413312297  0.5406166385363411
  0.5966813036637894  0.9039991574185197  0.5331560026676193
  0.4033186820404100  0.0960008504842513  0.4668439889619344
  0.3749018949465956  0.6253538564561910  0.4593833510465277
  0.9015465948382123  0.0990884026175585  0.4667289361035303
  0.9041846746341384  0.5974213635532366  0.4659012834000940
  0.3339300859855870  0.3351470555119990  0.4725428087547415
  0.3535092160208584  0.8532371755315866  0.4660821703187366
  0.8537833392865223  0.3545816751678132  0.4648370730374448
  0.8495871889287108  0.8501452428175007  0.4662446805138638
  0.1504128122253157  0.1498547621152874  0.5337553185442426
  0.1462166569604556  0.6454183399625197  0.5351629279116608
  0.6464907891202609  0.1467628277145070  0.5339178375724131
  0.6660699233873487  0.6648529575127563  0.5274571785483871
  0.5000000141281969  0.4999999979963318  0.4999999856934862
 
  0.00000000E+00  0.00000000E+00  0.00000000E+00
  0.00000000E+00  0.00000000E+00  0.00000000E+00
  0.00000000E+00  0.00000000E+00  0.00000000E+00
  0.00000000E+00  0.00000000E+00  0.00000000E+00
  0.00000000E+00  0.00000000E+00  0.00000000E+00
  0.00000000E+00  0.00000000E+00  0.00000000E+00
  0.00000000E+00  0.00000000E+00  0.00000000E+00
  0.00000000E+00  0.00000000E+00  0.00000000E+00
  0.00000000E+00  0.00000000E+00  0.00000000E+00
  0.00000000E+00  0.00000000E+00  0.00000000E+00
  0.00000000E+00  0.00000000E+00  0.00000000E+00
  0.00000000E+00  0.00000000E+00  0.00000000E+00
  0.00000000E+00  0.00000000E+00  0.00000000E+00
  0.00000000E+00  0.00000000E+00  0.00000000E+00
  0.00000000E+00  0.00000000E+00  0.00000000E+00
  0.00000000E+00  0.00000000E+00  0.00000000E+00
  0.00000000E+00  0.00000000E+00  0.00000000E+00
  0.00000000E+00  0.00000000E+00  0.00000000E+00
  0.00000000E+00  0.00000000E+00  0.00000000E+00
  0.00000000E+00  0.00000000E+00  0.00000000E+00
  0.00000000E+00  0.00000000E+00  0.00000000E+00
  0.00000000E+00  0.00000000E+00  0.00000000E+00
  0.00000000E+00  0.00000000E+00  0.00000000E+00
  0.00000000E+00  0.00000000E+00  0.00000000E+00
  0.00000000E+00  0.00000000E+00  0.00000000E+00
  0.00000000E+00  0.00000000E+00  0.00000000E+00
  0.00000000E+00  0.00000000E+00  0.00000000E+00
  0.00000000E+00  0.00000000E+00  0.00000000E+00
  0.00000000E+00  0.00000000E+00  0.00000000E+00
  0.00000000E+00  0.00000000E+00  0.00000000E+00
  0.00000000E+00  0.00000000E+00  0.00000000E+00
  0.00000000E+00  0.00000000E+00  0.00000000E+00
  0.00000000E+00  0.00000000E+00  0.00000000E+00
  0.00000000E+00  0.00000000E+00  0.00000000E+00
  0.00000000E+00  0.00000000E+00  0.00000000E+00
  0.00000000E+00  0.00000000E+00  0.00000000E+00
  0.00000000E+00  0.00000000E+00  0.00000000E+00
  0.00000000E+00  0.00000000E+00  0.00000000E+00
  0.00000000E+00  0.00000000E+00  0.00000000E+00
  0.00000000E+00  0.00000000E+00  0.00000000E+00
  0.00000000E+00  0.00000000E+00  0.00000000E+00
  0.00000000E+00  0.00000000E+00  0.00000000E+00
  0.00000000E+00  0.00000000E+00  0.00000000E+00
  0.00000000E+00  0.00000000E+00  0.00000000E+00
  0.00000000E+00  0.00000000E+00  0.00000000E+00
  0.00000000E+00  0.00000000E+00  0.00000000E+00
  0.00000000E+00  0.00000000E+00  0.00000000E+00
  0.00000000E+00  0.00000000E+00  0.00000000E+00
  0.00000000E+00  0.00000000E+00  0.00000000E+00
  0.00000000E+00  0.00000000E+00  0.00000000E+00
  0.00000000E+00  0.00000000E+00  0.00000000E+00
  0.00000000E+00  0.00000000E+00  0.00000000E+00
  0.00000000E+00  0.00000000E+00  0.00000000E+00
  0.00000000E+00  0.00000000E+00  0.00000000E+00
  0.00000000E+00  0.00000000E+00  0.00000000E+00
  0.00000000E+00  0.00000000E+00  0.00000000E+00
  0.00000000E+00  0.00000000E+00  0.00000000E+00
  0.00000000E+00  0.00000000E+00  0.00000000E+00
  0.00000000E+00  0.00000000E+00  0.00000000E+00
  0.00000000E+00  0.00000000E+00  0.00000000E+00
  0.00000000E+00  0.00000000E+00  0.00000000E+00
  0.00000000E+00  0.00000000E+00  0.00000000E+00
  0.00000000E+00  0.00000000E+00  0.00000000E+00
  0.00000000E+00  0.00000000E+00  0.00000000E+00
  0.00000000E+00  0.00000000E+00  0.00000000E+00
  0.00000000E+00  0.00000000E+00  0.00000000E+00
  0.00000000E+00  0.00000000E+00  0.00000000E+00
  0.00000000E+00  0.00000000E+00  0.00000000E+00
  0.00000000E+00  0.00000000E+00  0.00000000E+00
  0.00000000E+00  0.00000000E+00  0.00000000E+00
  0.00000000E+00  0.00000000E+00  0.00000000E+00
  0.00000000E+00  0.00000000E+00  0.00000000E+00
  0.00000000E+00  0.00000000E+00  0.00000000E+00
  0.00000000E+00  0.00000000E+00  0.00000000E+00
  0.00000000E+00  0.00000000E+00  0.00000000E+00
  0.00000000E+00  0.00000000E+00  0.00000000E+00
  0.00000000E+00  0.00000000E+00  0.00000000E+00
  0.00000000E+00  0.00000000E+00  0.00000000E+00
  0.00000000E+00  0.00000000E+00  0.00000000E+00
  0.00000000E+00  0.00000000E+00  0.00000000E+00
  0.00000000E+00  0.00000000E+00  0.00000000E+00
