Cs16 Pb16 I48 N1                        
   1.0000000000000000     
    17.7788800000000009    0.0000000000000000    0.0000000000000000
     0.0000000000000000   17.9504599999999996    0.0000000000000000
     0.0000000000000000    0.0000000000000000   12.7661599999999993
   Cs   Pb   I    N 
    16    16    48     1
Direct
  0.2511708520031286  0.2115317787639507  0.2309158999574401
  0.2564671212003432  0.7215753864976374  0.2534973999904583
  0.7638617636103928  0.2190011917633049  0.2534825694420045
  0.7608977098445792  0.7156057444933593  0.2487997747631100
  0.0069473831509005  0.0308191681873796  0.7537884393310935
  0.0132617737220082  0.5344238418298743  0.7449137936887764
  0.5095919074994226  0.0334514602001852  0.7550610778405971
  0.5101095492647284  0.5354822572430826  0.7530336371281803
  0.2350984626635364  0.2803354704493078  0.7672505361294641
  0.2454291325407666  0.7837046733120833  0.7503174595930077
  0.7473870389689761  0.2863701188520074  0.7589764121791385
  0.7398195480927806  0.7834990319057336  0.7489304723519575
  0.4838556636756137  0.4677055613093169  0.2635966980071271
  0.4913700983676195  0.9698705916163191  0.2509551980495248
  0.9929462247513163  0.4698331101561614  0.2542995498399616
  0.9922675711489602  0.9672986238615634  0.2492981258399470
 -0.0004882393467654  0.2516952021273153  0.0011085611662385
  0.0008363846618891  0.7498072412624918  0.0012246205119981
  0.5015391140515560  0.2516553385975668 -0.0030963756875998
  0.5025455840974871  0.7502736874242798  0.0029033161165487
  0.2520984117801834  0.9974428459818520  0.0006761828391386
  0.2534242443907438  0.5016439119744791 -0.0057877090153337
  0.7509240038165660  0.0004147821773746  0.0010740606820206
  0.7507516737918091  0.5013786481581932  0.0024329570995349
  0.0034112493076290  0.2510913298244873  0.5014926465703956
  0.0024797453193139  0.7533396773780008  0.5050798807840859
  0.5174099402856658  0.2443380659653216  0.5002985790481784
  0.5034024277716058  0.7546373169493400  0.5016128660117882
  0.2513700728820550  0.0012962666418374  0.5015947403312722
  0.2564541381219391  0.5016995552027248  0.4899168815524845
  0.7547913915403626 -0.0024181259125953  0.4983012840427234
  0.7527264498657478  0.5016681516912888  0.5014398614158088
  0.1550828387039687  0.1529431213013534  0.5367140428472440
  0.1447858475125331  0.6596236956699784  0.5446243411604516
  0.6610639658607191  0.1526586564205352  0.5487359418235479
  0.6500575881663018  0.6496027710471356  0.5397592410776751
  0.3518870871713946  0.3513702094197776  0.0424057925504688
  0.3520774952268903  0.8502324578387005  0.0402624337118504
  0.8510048751558619  0.3516178322173203  0.0399569749549175
  0.8524455604140134  0.8523104764137678  0.0418982144748381
  0.1461378035683025  0.1446124037594474  0.9674016811028396
  0.1508169234139447  0.6493573800921491  0.9569256637305905
  0.6500156137381904  0.1494854472895435  0.9601244995328413
  0.6521357860203841  0.6507813972618511  0.9630129868707827
  0.3410530112544624  0.3141961338814080  0.4790488042994549
  0.3522949866774581  0.8532690375248334  0.4633820671562727
  0.8529844940170227  0.3520160242110379  0.4662843432797245
  0.8451002239775697  0.8501366227034928  0.4592572781225057
  0.2144584315769042 -0.0005503136647409  0.2511536411767827
  0.2120877826715356  0.5075184257443243  0.2454168792607385
  0.7111305910684800  0.0077024544163378  0.2509416295239352
  0.7113221027557897  0.5022807582093044  0.2517557019737502
  0.0358326031873462  0.2551233925073327  0.2506696042441684
  0.0369520895481053  0.7533538474704913  0.2509835722277229
  0.5422862645511812  0.2543374795598914  0.2527631241805093
  0.5415465793561248  0.7571132409923462  0.2520316567889601
  0.3994873495815873  0.1022117723330756  0.0387566899262636
  0.4018843364485549  0.6013635903786771  0.0402637124044278
  0.8995256494396324  0.1024821736728149  0.0400142089519276
  0.9008264633264798  0.6004994472305905  0.0409826081871348
  0.4014685915826133  0.1030048216632767  0.4659394511765630
  0.3997063861668231  0.6100311062673638  0.4654268798278557
  0.9038151005318575  0.0991450046789242  0.4625356331665848
  0.9001888234958078  0.6020722247604738  0.4637323513788015
  0.1065717066740401  0.3956433201078616  0.5358512079109176
  0.0987090449037086  0.9053508998092888  0.5377825448178067
  0.5992792895406390  0.4011416451187843  0.5413617855410670
  0.5999660881678354  0.9053668105073017  0.5401905669481167
  0.1015747807161701  0.4000111536408341  0.9629180966136017
  0.1026235544146694  0.8978410666677091  0.9616710130656303
  0.6021128174029772  0.3994083905425718  0.9592740647244261
  0.6014091353088544  0.9001815121047191  0.9640366296237978
  0.4613546879912140  0.2472677187412009  0.7512716441760205
  0.4662293763270327  0.7496826791554269  0.7525702594447662
  0.9663326991554099  0.2457435866776753  0.7512883477766481
  0.9590459965313847  0.7492305001756302  0.7523140429042682
  0.2934367021163291  0.4892700438877229  0.7481164150329046
  0.2890985746184186  0.9980090100973578  0.7514916215672369
  0.7905955173122253  0.4995391258605468  0.7519032212868182
  0.7888631562005968  0.9955765666314498  0.7516562052737163
  0.3508248331183386  0.4199576509847366  0.4275741938763659

  0.00000000E+00  0.00000000E+00  0.00000000E+00
  0.00000000E+00  0.00000000E+00  0.00000000E+00
  0.00000000E+00  0.00000000E+00  0.00000000E+00
  0.00000000E+00  0.00000000E+00  0.00000000E+00
  0.00000000E+00  0.00000000E+00  0.00000000E+00
  0.00000000E+00  0.00000000E+00  0.00000000E+00
  0.00000000E+00  0.00000000E+00  0.00000000E+00
  0.00000000E+00  0.00000000E+00  0.00000000E+00
  0.00000000E+00  0.00000000E+00  0.00000000E+00
  0.00000000E+00  0.00000000E+00  0.00000000E+00
  0.00000000E+00  0.00000000E+00  0.00000000E+00
  0.00000000E+00  0.00000000E+00  0.00000000E+00
  0.00000000E+00  0.00000000E+00  0.00000000E+00
  0.00000000E+00  0.00000000E+00  0.00000000E+00
  0.00000000E+00  0.00000000E+00  0.00000000E+00
  0.00000000E+00  0.00000000E+00  0.00000000E+00
  0.00000000E+00  0.00000000E+00  0.00000000E+00
  0.00000000E+00  0.00000000E+00  0.00000000E+00
  0.00000000E+00  0.00000000E+00  0.00000000E+00
  0.00000000E+00  0.00000000E+00  0.00000000E+00
  0.00000000E+00  0.00000000E+00  0.00000000E+00
  0.00000000E+00  0.00000000E+00  0.00000000E+00
  0.00000000E+00  0.00000000E+00  0.00000000E+00
  0.00000000E+00  0.00000000E+00  0.00000000E+00
  0.00000000E+00  0.00000000E+00  0.00000000E+00
  0.00000000E+00  0.00000000E+00  0.00000000E+00
  0.00000000E+00  0.00000000E+00  0.00000000E+00
  0.00000000E+00  0.00000000E+00  0.00000000E+00
  0.00000000E+00  0.00000000E+00  0.00000000E+00
  0.00000000E+00  0.00000000E+00  0.00000000E+00
  0.00000000E+00  0.00000000E+00  0.00000000E+00
  0.00000000E+00  0.00000000E+00  0.00000000E+00
  0.00000000E+00  0.00000000E+00  0.00000000E+00
  0.00000000E+00  0.00000000E+00  0.00000000E+00
  0.00000000E+00  0.00000000E+00  0.00000000E+00
  0.00000000E+00  0.00000000E+00  0.00000000E+00
  0.00000000E+00  0.00000000E+00  0.00000000E+00
  0.00000000E+00  0.00000000E+00  0.00000000E+00
  0.00000000E+00  0.00000000E+00  0.00000000E+00
  0.00000000E+00  0.00000000E+00  0.00000000E+00
  0.00000000E+00  0.00000000E+00  0.00000000E+00
  0.00000000E+00  0.00000000E+00  0.00000000E+00
  0.00000000E+00  0.00000000E+00  0.00000000E+00
  0.00000000E+00  0.00000000E+00  0.00000000E+00
  0.00000000E+00  0.00000000E+00  0.00000000E+00
  0.00000000E+00  0.00000000E+00  0.00000000E+00
  0.00000000E+00  0.00000000E+00  0.00000000E+00
  0.00000000E+00  0.00000000E+00  0.00000000E+00
  0.00000000E+00  0.00000000E+00  0.00000000E+00
  0.00000000E+00  0.00000000E+00  0.00000000E+00
  0.00000000E+00  0.00000000E+00  0.00000000E+00
  0.00000000E+00  0.00000000E+00  0.00000000E+00
  0.00000000E+00  0.00000000E+00  0.00000000E+00
  0.00000000E+00  0.00000000E+00  0.00000000E+00
  0.00000000E+00  0.00000000E+00  0.00000000E+00
  0.00000000E+00  0.00000000E+00  0.00000000E+00
  0.00000000E+00  0.00000000E+00  0.00000000E+00
  0.00000000E+00  0.00000000E+00  0.00000000E+00
  0.00000000E+00  0.00000000E+00  0.00000000E+00
  0.00000000E+00  0.00000000E+00  0.00000000E+00
  0.00000000E+00  0.00000000E+00  0.00000000E+00
  0.00000000E+00  0.00000000E+00  0.00000000E+00
  0.00000000E+00  0.00000000E+00  0.00000000E+00
  0.00000000E+00  0.00000000E+00  0.00000000E+00
  0.00000000E+00  0.00000000E+00  0.00000000E+00
  0.00000000E+00  0.00000000E+00  0.00000000E+00
  0.00000000E+00  0.00000000E+00  0.00000000E+00
  0.00000000E+00  0.00000000E+00  0.00000000E+00
  0.00000000E+00  0.00000000E+00  0.00000000E+00
  0.00000000E+00  0.00000000E+00  0.00000000E+00
  0.00000000E+00  0.00000000E+00  0.00000000E+00
  0.00000000E+00  0.00000000E+00  0.00000000E+00
  0.00000000E+00  0.00000000E+00  0.00000000E+00
  0.00000000E+00  0.00000000E+00  0.00000000E+00
  0.00000000E+00  0.00000000E+00  0.00000000E+00
  0.00000000E+00  0.00000000E+00  0.00000000E+00
  0.00000000E+00  0.00000000E+00  0.00000000E+00
  0.00000000E+00  0.00000000E+00  0.00000000E+00
  0.00000000E+00  0.00000000E+00  0.00000000E+00
  0.00000000E+00  0.00000000E+00  0.00000000E+00
  0.00000000E+00  0.00000000E+00  0.00000000E+00
