Cs16 Pb16 I48 F1                        
   1.0000000000000000     
    17.7788800000000009    0.0000000000000000    0.0000000000000000
     0.0000000000000000   17.9504599999999996    0.0000000000000000
     0.0000000000000000    0.0000000000000000   12.7661599999999993
   Cs   Pb   I    F 
    16    16    48     1
Direct
  0.2568654063191028  0.2106030757247356  0.2121898775868066
  0.2545547639635928  0.7143933972975468  0.2595341172661888
  0.7429539303886177  0.2252997935982995  0.2589901872749844
  0.7668659145919113  0.7248700816758507  0.2572966984291583
  0.0009942281989635  0.0256377712744158  0.7533961538224271
  0.0133915334482124  0.5330410244823637  0.7497854649029027
  0.5129879272714036  0.0421300803439234  0.7418986451310310
  0.5124624610446370  0.5332015362024685  0.7499102365677814
  0.2284345309691003  0.2751251238168626  0.7724259539314342
  0.2432375121735080  0.7755520105836695  0.7409089110969899
  0.7429312931436239  0.2757453049612023  0.7406870206112963
  0.7426649380427679  0.7895587395962747  0.7474422555334328
  0.4985896195560641  0.4876669573726139  0.2626614207546845
  0.4892275107045265  0.9668574131461408  0.2480310205228684
  0.0041567261194731  0.4722962685550974  0.2594133443277848
  0.9950463905680165  0.9751454545713126  0.2623973646682667
  0.9971568904821223  0.2512651006112591  0.0072921193526685
  0.0010917084724212  0.7516843420444195  0.0011488750312723
  0.4990252254043565  0.2565851383526161  0.9913225762825248
  0.5042072488360925  0.7510642905577829  0.9997934148799466
  0.2546340047619864  0.9948359549992660  0.9980956327065934
  0.2545155716266684  0.5004649458171403 -0.0065375275257204
  0.7483608229771941  0.0037759345997551  0.0034395853634239
  0.7543627643559540  0.5023156503687821  0.0020310726725578
  0.0053899588844543  0.2565629559811767  0.5058866999085371
  0.0063150561241154  0.7520787264651451  0.5047820987849686
  0.4658428065062640  0.2918449623245887  0.4880151442223858
  0.5046395713571198  0.7534256489966142  0.5016518689684984
  0.2592640788500284  0.0037270714093746  0.5007628793818030
  0.2942339053644827  0.4603871071916025  0.4863533977954655
  0.7481365927851008  0.0100585982510892  0.4999093392227717
  0.7552164952745518  0.5023317780509123  0.5031552678381571
  0.1337984783853575  0.1328416953937150  0.5554995328495725
  0.1431653532026805  0.6468397852294943  0.5335622001096783
  0.6445774088334659  0.1497656940623265  0.5267345388628503
  0.6512676268590831  0.6502660497488454  0.5425510064755201
  0.3480985285111931  0.3504309524569752  0.0247996398014596
  0.3522448790513452  0.8468094126643734  0.0447200811214499
  0.8518201249182491  0.3523163411109446  0.0507792999763976
  0.8527134702131614  0.8555816215142580  0.0348492385730757
  0.1409675953571275  0.1378718641362524  0.9681550803032173
  0.1509142826918276  0.6493125105117500  0.9661284646101812
  0.6496908070345878  0.1543207088545472  0.9675747887446270
  0.6549572001842198  0.6517921266766201  0.9601328205472857
  0.2881246911686950  0.2858946875823101  0.4846885251562472
  0.3530696337132513  0.8520177372312258  0.4609901506608742
  0.8540011818987695  0.3543201534012155  0.4617053044979528
  0.8548859655357811  0.8597492585400790  0.4712340274835507
  0.2182818772976164  0.0000358225949365  0.2510876905051518
  0.2336887896173905  0.4935392530416440  0.2487262501915972
  0.7096338550972795  0.0054367114838803  0.2497359315232158
  0.7175176855618562  0.5092342786076083  0.2537373768286613
  0.0419162664774145  0.2540808740955717  0.2557575360468193
  0.0352375961979312  0.7581149510042891  0.2512424078143962
  0.5169907154049589  0.2670411857587381  0.2497452686429155
  0.5425740739581919  0.7514381915462386  0.2513418141477063
  0.4018855944007390  0.1011053919094320  0.0281988014583859
  0.4037746173407928  0.6006257680295639  0.0304833723438364
  0.8969962262521638  0.1037392830142914  0.0462486072252694
  0.9030528328185606  0.6010679478987607  0.0435196316971991
  0.4065168299491262  0.0965841325218061  0.4656441098655658
  0.3939386149411659  0.6133909042967488  0.4713430121395371
  0.8925137161513832  0.1101708473672455  0.4613073016611277
  0.9004791903650051  0.6046872919205551  0.4640851369170505
  0.0989300249456951  0.4040047533382006  0.5347310664864200
  0.1055624181008768  0.8964763700957680  0.5405162715857781
  0.6107612508745269  0.3972240966470774  0.5441584359945569
  0.6023792258083303  0.9013082003867920  0.5383463776006416
  0.1016625515831272  0.4002364681479779  0.9701786677624873
  0.1049771267149133  0.8957182495996910  0.9587471442859218
  0.6024885961403971  0.4022748693543312  0.9657237518450292
  0.5993942843847172  0.9029781385615948  0.9605478048559450
  0.4593258927610505  0.2566260878042531  0.7462605226575051
  0.4661454266009807  0.7483886597999134  0.7517942343715759
  0.9650224177741878  0.2478814020985109  0.7567185601726321
  0.9629095822486696  0.7470424176353858  0.7528005039880925
  0.2905835409166315  0.4875509972999862  0.7421777598915056
  0.2946282305175483  0.9904313637833240  0.7513115083471861
  0.7931300103847123  0.4921779136840785  0.7541329250060730
  0.7805002369837696  0.0070685131098041  0.7515842040059273
  0.4181962118553859  0.4142527438398640  0.4517130945789303

  0.00000000E+00  0.00000000E+00  0.00000000E+00
  0.00000000E+00  0.00000000E+00  0.00000000E+00
  0.00000000E+00  0.00000000E+00  0.00000000E+00
  0.00000000E+00  0.00000000E+00  0.00000000E+00
  0.00000000E+00  0.00000000E+00  0.00000000E+00
  0.00000000E+00  0.00000000E+00  0.00000000E+00
  0.00000000E+00  0.00000000E+00  0.00000000E+00
  0.00000000E+00  0.00000000E+00  0.00000000E+00
  0.00000000E+00  0.00000000E+00  0.00000000E+00
  0.00000000E+00  0.00000000E+00  0.00000000E+00
  0.00000000E+00  0.00000000E+00  0.00000000E+00
  0.00000000E+00  0.00000000E+00  0.00000000E+00
  0.00000000E+00  0.00000000E+00  0.00000000E+00
  0.00000000E+00  0.00000000E+00  0.00000000E+00
  0.00000000E+00  0.00000000E+00  0.00000000E+00
  0.00000000E+00  0.00000000E+00  0.00000000E+00
  0.00000000E+00  0.00000000E+00  0.00000000E+00
  0.00000000E+00  0.00000000E+00  0.00000000E+00
  0.00000000E+00  0.00000000E+00  0.00000000E+00
  0.00000000E+00  0.00000000E+00  0.00000000E+00
  0.00000000E+00  0.00000000E+00  0.00000000E+00
  0.00000000E+00  0.00000000E+00  0.00000000E+00
  0.00000000E+00  0.00000000E+00  0.00000000E+00
  0.00000000E+00  0.00000000E+00  0.00000000E+00
  0.00000000E+00  0.00000000E+00  0.00000000E+00
  0.00000000E+00  0.00000000E+00  0.00000000E+00
  0.00000000E+00  0.00000000E+00  0.00000000E+00
  0.00000000E+00  0.00000000E+00  0.00000000E+00
  0.00000000E+00  0.00000000E+00  0.00000000E+00
  0.00000000E+00  0.00000000E+00  0.00000000E+00
  0.00000000E+00  0.00000000E+00  0.00000000E+00
  0.00000000E+00  0.00000000E+00  0.00000000E+00
  0.00000000E+00  0.00000000E+00  0.00000000E+00
  0.00000000E+00  0.00000000E+00  0.00000000E+00
  0.00000000E+00  0.00000000E+00  0.00000000E+00
  0.00000000E+00  0.00000000E+00  0.00000000E+00
  0.00000000E+00  0.00000000E+00  0.00000000E+00
  0.00000000E+00  0.00000000E+00  0.00000000E+00
  0.00000000E+00  0.00000000E+00  0.00000000E+00
  0.00000000E+00  0.00000000E+00  0.00000000E+00
  0.00000000E+00  0.00000000E+00  0.00000000E+00
  0.00000000E+00  0.00000000E+00  0.00000000E+00
  0.00000000E+00  0.00000000E+00  0.00000000E+00
  0.00000000E+00  0.00000000E+00  0.00000000E+00
  0.00000000E+00  0.00000000E+00  0.00000000E+00
  0.00000000E+00  0.00000000E+00  0.00000000E+00
  0.00000000E+00  0.00000000E+00  0.00000000E+00
  0.00000000E+00  0.00000000E+00  0.00000000E+00
  0.00000000E+00  0.00000000E+00  0.00000000E+00
  0.00000000E+00  0.00000000E+00  0.00000000E+00
  0.00000000E+00  0.00000000E+00  0.00000000E+00
  0.00000000E+00  0.00000000E+00  0.00000000E+00
  0.00000000E+00  0.00000000E+00  0.00000000E+00
  0.00000000E+00  0.00000000E+00  0.00000000E+00
  0.00000000E+00  0.00000000E+00  0.00000000E+00
  0.00000000E+00  0.00000000E+00  0.00000000E+00
  0.00000000E+00  0.00000000E+00  0.00000000E+00
  0.00000000E+00  0.00000000E+00  0.00000000E+00
  0.00000000E+00  0.00000000E+00  0.00000000E+00
  0.00000000E+00  0.00000000E+00  0.00000000E+00
  0.00000000E+00  0.00000000E+00  0.00000000E+00
  0.00000000E+00  0.00000000E+00  0.00000000E+00
  0.00000000E+00  0.00000000E+00  0.00000000E+00
  0.00000000E+00  0.00000000E+00  0.00000000E+00
  0.00000000E+00  0.00000000E+00  0.00000000E+00
  0.00000000E+00  0.00000000E+00  0.00000000E+00
  0.00000000E+00  0.00000000E+00  0.00000000E+00
  0.00000000E+00  0.00000000E+00  0.00000000E+00
  0.00000000E+00  0.00000000E+00  0.00000000E+00
  0.00000000E+00  0.00000000E+00  0.00000000E+00
  0.00000000E+00  0.00000000E+00  0.00000000E+00
  0.00000000E+00  0.00000000E+00  0.00000000E+00
  0.00000000E+00  0.00000000E+00  0.00000000E+00
  0.00000000E+00  0.00000000E+00  0.00000000E+00
  0.00000000E+00  0.00000000E+00  0.00000000E+00
  0.00000000E+00  0.00000000E+00  0.00000000E+00
  0.00000000E+00  0.00000000E+00  0.00000000E+00
  0.00000000E+00  0.00000000E+00  0.00000000E+00
  0.00000000E+00  0.00000000E+00  0.00000000E+00
  0.00000000E+00  0.00000000E+00  0.00000000E+00
  0.00000000E+00  0.00000000E+00  0.00000000E+00
