Cs16 Pb16 I48 Cl1                       
   1.0000000000000000     
    17.7788800000000009    0.0000000000000000    0.0000000000000000
     0.0000000000000000   17.9504599999999996    0.0000000000000000
     0.0000000000000000    0.0000000000000000   12.7661599999999993
   Cs   Pb   I    Cl
    16    16    48     1
Direct
  0.2611844167040176  0.2086886790461312  0.2154002152287679
  0.2450972676880620  0.7263525363400616  0.2508678592838042
  0.7368705285780284  0.2343229027874946  0.2688688785341249
  0.7684018057647829  0.7196864210751257  0.2553435655281378
  0.0016923216689320  0.0263418664732698  0.7504270854635291
  0.0149289917101065  0.5349253320401144  0.7493149919554188
  0.5128689748274804  0.0402822073634347  0.7453973512039133
  0.5078196957026269  0.5200699402050929  0.7391196839870616
  0.2266737242141116  0.2797835633762594  0.7673229695113761
  0.2468639995657554  0.7729412366689494  0.7374138896768261
  0.7535308932729620  0.2690706438639961  0.7613461177598774
  0.7365286355006592  0.7855149484931707  0.7438882634923702
  0.5006602426314350  0.5007367806488472  0.2521984377594617
  0.4917074723802237  0.9645580672997388  0.2462384697651756
  0.0033550190478145  0.4720418628960967  0.2574456658228638
  0.9937837176173373  0.9778499646539224  0.2628216217376537
  0.9990511698648310  0.2489206788322086  0.0077673203689424
  0.9985620006484691  0.7530048931321606 -0.0008315789922794
  0.4980897805914919  0.2571589938030089 -0.0001655518854206
  0.5045403360750680  0.7481348553783076 -0.0026620346541523
  0.2545992783805164  0.9949777292160626  0.9964304195671552
  0.2487993928259032  0.5016455479770017  0.0020695289440945
  0.7478050950914727  0.0026544676498809  0.0050566556957215
  0.7551470636763986  0.4997552428982625  0.0010851163523952
  0.0086306325353831  0.2543541287764328  0.5034335729357466
  0.0034736473292936  0.7528861360456945  0.5052121678299358
  0.4711453002978941  0.2791791463126279  0.5010952785566124
  0.5017018735598588  0.7505666301731245  0.4980776014836156
  0.2589499236482228  0.0039184655316519  0.4999871659829322
  0.2818367621490129  0.4707029384052189  0.4977324188962453
  0.7470505094049169  0.0080957063391227  0.5018592323395981
  0.7571499035633293  0.4970607564463533  0.5048056140754339
  0.1390757470321582  0.1349086467935938  0.5556480028393537
  0.1403456273604395  0.6480358207673991  0.5314943798435789
  0.6460009451736450  0.1502166651836099  0.5358567815818556
  0.6431180569998687  0.6380734389103431  0.5392605426388348
  0.3453921358535757  0.3522014775308969  0.0232389278180043
  0.3541594230919941  0.8472463839699272  0.0387821380279520
  0.8505437873135382  0.3472430224892534  0.0471331226548363
  0.8481952946921026  0.8537397525951019  0.0351995188100851
  0.1450484170633355  0.1397128009461824  0.9659473046934945
  0.1480876987527534  0.6518697763333615  0.9638675304687068
  0.6463951728265105  0.1527497089462422  0.9742554839602627
  0.6542696313999760  0.6475114689372274  0.9595304976229597
  0.2947097994686251  0.2957576995400178  0.4795509273809578
  0.3563224141070380  0.8562911603273611  0.4559541973296651
  0.8654376392448198  0.3582373645154580  0.4522391799906582
  0.8517081567153376  0.8607357294684228  0.4700687020842681
  0.2175324406250104 -0.0020726701772096  0.2492125596449378
  0.2267456729944056  0.5024842928049620  0.2480882130147581
  0.7102761297703588  0.0122543881831244  0.2524072444637394
  0.7194449533517655  0.5033079329902382  0.2524148599966742
  0.0456814610404950  0.2507344870302518  0.2545149544192535
  0.0272456649711693  0.7598980966502702  0.2502617485983020
  0.5151881348775499  0.2759960511257627  0.2506542544498310
  0.5449053576721676  0.7476540809568869  0.2473474924050164
  0.4022882474647210  0.1000193064466769  0.0306553222153392
  0.4001663781259838  0.6018111574001520  0.0231500855730758
  0.8997928356267409  0.1003749838781450  0.0378116948361841
  0.9026304463615500  0.5999609430796752  0.0418687417998374
  0.4068291624078048  0.0980519987195163  0.4627525382751698
  0.3772309351821299  0.6282552436526129  0.4546767758075363
  0.8929075881149635  0.1106714868198773  0.4672219152193197
  0.8984277189163734  0.6058638602931831  0.4647465476292261
  0.1008128654241573  0.4051341049074599  0.5344905656222855
  0.1055182593383983  0.8967653276268690  0.5384649733102193
  0.6369399274321373  0.3678879876704068  0.5414756754254086
  0.6026326449682302  0.9004624874848400  0.5373852961364568
  0.0982827917887252  0.4011883554983047  0.9712809219838990
  0.1037945079969321  0.8960795975964175  0.9583105276845362
  0.6025867977534922  0.4006532599040021  0.9631861057871077
  0.5997419856135476  0.9012303675257146  0.9614781153203812
  0.4553220624708242  0.2544210218576722  0.7499406037401406
  0.4684376546084151  0.7416858785425605  0.7475121492115878
  0.9722718056132195  0.2490953416265644  0.7556365499278588
  0.9581371788914883  0.7480091087688253  0.7515862016973920
  0.2823019178521071  0.4953807174125366  0.7433943714219174
  0.2953468626719061  0.9883778235191043  0.7493129735813585
  0.7965658136093922  0.4887166315139785  0.7530936044146163
  0.7796057882246398  0.0047190591126909  0.7532779898859511
  0.4407476287356382  0.4358101075617991  0.5018162107384251

  0.00000000E+00  0.00000000E+00  0.00000000E+00
  0.00000000E+00  0.00000000E+00  0.00000000E+00
  0.00000000E+00  0.00000000E+00  0.00000000E+00
  0.00000000E+00  0.00000000E+00  0.00000000E+00
  0.00000000E+00  0.00000000E+00  0.00000000E+00
  0.00000000E+00  0.00000000E+00  0.00000000E+00
  0.00000000E+00  0.00000000E+00  0.00000000E+00
  0.00000000E+00  0.00000000E+00  0.00000000E+00
  0.00000000E+00  0.00000000E+00  0.00000000E+00
  0.00000000E+00  0.00000000E+00  0.00000000E+00
  0.00000000E+00  0.00000000E+00  0.00000000E+00
  0.00000000E+00  0.00000000E+00  0.00000000E+00
  0.00000000E+00  0.00000000E+00  0.00000000E+00
  0.00000000E+00  0.00000000E+00  0.00000000E+00
  0.00000000E+00  0.00000000E+00  0.00000000E+00
  0.00000000E+00  0.00000000E+00  0.00000000E+00
  0.00000000E+00  0.00000000E+00  0.00000000E+00
  0.00000000E+00  0.00000000E+00  0.00000000E+00
  0.00000000E+00  0.00000000E+00  0.00000000E+00
  0.00000000E+00  0.00000000E+00  0.00000000E+00
  0.00000000E+00  0.00000000E+00  0.00000000E+00
  0.00000000E+00  0.00000000E+00  0.00000000E+00
  0.00000000E+00  0.00000000E+00  0.00000000E+00
  0.00000000E+00  0.00000000E+00  0.00000000E+00
  0.00000000E+00  0.00000000E+00  0.00000000E+00
  0.00000000E+00  0.00000000E+00  0.00000000E+00
  0.00000000E+00  0.00000000E+00  0.00000000E+00
  0.00000000E+00  0.00000000E+00  0.00000000E+00
  0.00000000E+00  0.00000000E+00  0.00000000E+00
  0.00000000E+00  0.00000000E+00  0.00000000E+00
  0.00000000E+00  0.00000000E+00  0.00000000E+00
  0.00000000E+00  0.00000000E+00  0.00000000E+00
  0.00000000E+00  0.00000000E+00  0.00000000E+00
  0.00000000E+00  0.00000000E+00  0.00000000E+00
  0.00000000E+00  0.00000000E+00  0.00000000E+00
  0.00000000E+00  0.00000000E+00  0.00000000E+00
  0.00000000E+00  0.00000000E+00  0.00000000E+00
  0.00000000E+00  0.00000000E+00  0.00000000E+00
  0.00000000E+00  0.00000000E+00  0.00000000E+00
  0.00000000E+00  0.00000000E+00  0.00000000E+00
  0.00000000E+00  0.00000000E+00  0.00000000E+00
  0.00000000E+00  0.00000000E+00  0.00000000E+00
  0.00000000E+00  0.00000000E+00  0.00000000E+00
  0.00000000E+00  0.00000000E+00  0.00000000E+00
  0.00000000E+00  0.00000000E+00  0.00000000E+00
  0.00000000E+00  0.00000000E+00  0.00000000E+00
  0.00000000E+00  0.00000000E+00  0.00000000E+00
  0.00000000E+00  0.00000000E+00  0.00000000E+00
  0.00000000E+00  0.00000000E+00  0.00000000E+00
  0.00000000E+00  0.00000000E+00  0.00000000E+00
  0.00000000E+00  0.00000000E+00  0.00000000E+00
  0.00000000E+00  0.00000000E+00  0.00000000E+00
  0.00000000E+00  0.00000000E+00  0.00000000E+00
  0.00000000E+00  0.00000000E+00  0.00000000E+00
  0.00000000E+00  0.00000000E+00  0.00000000E+00
  0.00000000E+00  0.00000000E+00  0.00000000E+00
  0.00000000E+00  0.00000000E+00  0.00000000E+00
  0.00000000E+00  0.00000000E+00  0.00000000E+00
  0.00000000E+00  0.00000000E+00  0.00000000E+00
  0.00000000E+00  0.00000000E+00  0.00000000E+00
  0.00000000E+00  0.00000000E+00  0.00000000E+00
  0.00000000E+00  0.00000000E+00  0.00000000E+00
  0.00000000E+00  0.00000000E+00  0.00000000E+00
  0.00000000E+00  0.00000000E+00  0.00000000E+00
  0.00000000E+00  0.00000000E+00  0.00000000E+00
  0.00000000E+00  0.00000000E+00  0.00000000E+00
  0.00000000E+00  0.00000000E+00  0.00000000E+00
  0.00000000E+00  0.00000000E+00  0.00000000E+00
  0.00000000E+00  0.00000000E+00  0.00000000E+00
  0.00000000E+00  0.00000000E+00  0.00000000E+00
  0.00000000E+00  0.00000000E+00  0.00000000E+00
  0.00000000E+00  0.00000000E+00  0.00000000E+00
  0.00000000E+00  0.00000000E+00  0.00000000E+00
  0.00000000E+00  0.00000000E+00  0.00000000E+00
  0.00000000E+00  0.00000000E+00  0.00000000E+00
  0.00000000E+00  0.00000000E+00  0.00000000E+00
  0.00000000E+00  0.00000000E+00  0.00000000E+00
  0.00000000E+00  0.00000000E+00  0.00000000E+00
  0.00000000E+00  0.00000000E+00  0.00000000E+00
  0.00000000E+00  0.00000000E+00  0.00000000E+00
  0.00000000E+00  0.00000000E+00  0.00000000E+00
