Cs16 P1 Pb16 I48                        
   1.0000000000000000     
    17.7788800000000009    0.0000000000000000    0.0000000000000000
     0.0000000000000000   17.9504599999999996    0.0000000000000000
     0.0000000000000000    0.0000000000000000   12.7661599999999993
   Cs   P    Pb   I 
    16     1    16    48
Direct
  0.2574285204374376  0.2067245244221198  0.2145424984842344
  0.2553509833639896  0.7182424565631074  0.2531769985550325
  0.7501196727545784  0.2211060397673037  0.2552599632941351
  0.7657641267912988  0.7229108389027750  0.2554272574121621
  0.0052675111340756  0.0301364017941882  0.7488555235369815
  0.0111155767040415  0.5368233532865327  0.7535009198750102
  0.5129719415485343  0.0393571323487918  0.7422151785363106
  0.5120311580514274  0.5350534938118144  0.7513040770186926
  0.2308385934872609  0.2783503765919892  0.7831880107502569
  0.2437826445336510  0.7826556513799868  0.7465657766920357
  0.7464755629027416  0.2793885400746002  0.7465671636414437
  0.7428549505266222  0.7893441772408678  0.7475059241964737
  0.5020495408500245  0.4812848994677321  0.2354256263021193
  0.4924300770350839  0.9646051115251366  0.2441202803626248
 -0.0019727051932658  0.4715618661784964  0.2557072991956273
  0.9934899740873011  0.9711176338871000  0.2568976797837614
  0.3792447086389685  0.3830346361400359  0.4812464621990921
 -0.0027915226844183  0.2516915650982479  0.0077117881728334
  0.0009662912492224  0.7526152036413757  0.0005424044025890
  0.5005741301966753  0.2542146323790601 -0.0040099289176998
  0.5048323734373279  0.7517234514236886 -0.0014627049987405
  0.2539732514654817  0.9953801516959933  0.9978837349851859
  0.2507848704192584  0.5027564472352805  0.0005497741591106
  0.7496587804740715  0.0033435289735586  0.0027703801483217
  0.7542390988764682  0.5026785119674602  0.0000548666762720
  0.0031554840742807  0.2575244975541840  0.5046625644152074
  0.0059138709284053  0.7547595542209896  0.5042655790799786
  0.4958642043676049  0.2657553783269083  0.4996986886770856
  0.5056903207138284  0.7536837368000903  0.5011733295034900
  0.2601018824813504  0.0011606131712340  0.4984019809645794
  0.2630146348103247  0.4983083842392285  0.5013255150724849
  0.7520662561300572  0.0076398098720551  0.5001304198021407
  0.7570200057739763  0.5037596861896260  0.5011587231036556
  0.1447970178478048  0.1429753573008252  0.5458766379942550
  0.1510453733605381  0.6522858423483341  0.5381509987147606
  0.6497702520867105  0.1537403257092509  0.5336425202371881
  0.6535476362319256  0.6513168691285186  0.5420080978854327
  0.3512768916762800  0.3540341198025332  0.0375643129062172
  0.3526755330217914  0.8481521239768623  0.0402550262699398
  0.8502388126872522  0.3515668000571384  0.0459446805657879
  0.8522611019136301  0.8549011885734372  0.0379479868909228
  0.1413579474271386  0.1390923252946915  0.9699232897912596
  0.1510792001755542  0.6512923382129188  0.9618501174327301
  0.6499419988245592  0.1533683800153288  0.9635105335543235
  0.6539932488190432  0.6513343830656478  0.9584328719338232
  0.2830034379021976  0.2842396995628085  0.4911751133015603
  0.3517522493574124  0.8477625610843669  0.4619803845330022
  0.8503292618580983  0.3512427032438335  0.4619686841793368
  0.8537806847998020  0.8569030097946920  0.4667471001321524
  0.2165852504699642  0.9965445629524340  0.2489807182701115
  0.2222411387975936  0.5010613654722135  0.2497687643851368
  0.7107792653489339  0.0052792918454776  0.2502353057335340
  0.7184334834676864  0.5082476104242634  0.2507889088268317
  0.0428446925698964  0.2564843092426032  0.2546876256668217
  0.0364442255541930  0.7559192953570478  0.2508212525725520
  0.5284980489946933  0.2647203465368650  0.2500106028154952
  0.5427872222808756  0.7504521382902563  0.2489507207845935
  0.4020220079043084  0.1012321918520254  0.0315963063841470
  0.4004749905081405  0.6041085661892267  0.0302727384938220
  0.8974835606458600  0.1042190405642394  0.0474364037235821
  0.9029243786594919  0.6014183148622457  0.0400311121098303
  0.4088415339929613  0.0924390498791377  0.4589586450229330
  0.4055358810611203  0.6004679902098560  0.4606521905842065
  0.8986811414610053  0.1058637494099995  0.4615164202165555
  0.9013966710425340  0.6032460101615297  0.4630455778498159
  0.0921780988509548  0.4088565462352668  0.5371856800361298
  0.1033673310503020  0.9005782699289339  0.5394977715200086
  0.6035171626758948  0.4018541151914156  0.5413143327958843
  0.6021057068433614  0.9007288264390032  0.5374282036376217
  0.1000847677148552  0.4016578297191185  0.9693845317630593
  0.1039895357339064  0.8976981481899406  0.9566180509038753
  0.6026606832719406  0.4016311189663310  0.9615999106276433
  0.6003001983535243  0.9029201524883075  0.9588450071003110
  0.4560003521698365  0.2524531421409383  0.7499294707258575
  0.4650519834195873  0.7482700529693079  0.7491857536809208
  0.9669285690341712  0.2474499522119483  0.7557177347456058
  0.9618337260421314  0.7494313028217716  0.7520807541091880
  0.2927527179591443  0.4888684885094784  0.7494637084299333
  0.2937781288379251  0.9960833082346013  0.7495138845353688
  0.7925972280964951  0.4939256135319212  0.7513025477640145
  0.7853728974767452  0.0045859683615439  0.7516603042128094

  0.00000000E+00  0.00000000E+00  0.00000000E+00
  0.00000000E+00  0.00000000E+00  0.00000000E+00
  0.00000000E+00  0.00000000E+00  0.00000000E+00
  0.00000000E+00  0.00000000E+00  0.00000000E+00
  0.00000000E+00  0.00000000E+00  0.00000000E+00
  0.00000000E+00  0.00000000E+00  0.00000000E+00
  0.00000000E+00  0.00000000E+00  0.00000000E+00
  0.00000000E+00  0.00000000E+00  0.00000000E+00
  0.00000000E+00  0.00000000E+00  0.00000000E+00
  0.00000000E+00  0.00000000E+00  0.00000000E+00
  0.00000000E+00  0.00000000E+00  0.00000000E+00
  0.00000000E+00  0.00000000E+00  0.00000000E+00
  0.00000000E+00  0.00000000E+00  0.00000000E+00
  0.00000000E+00  0.00000000E+00  0.00000000E+00
  0.00000000E+00  0.00000000E+00  0.00000000E+00
  0.00000000E+00  0.00000000E+00  0.00000000E+00
  0.00000000E+00  0.00000000E+00  0.00000000E+00
  0.00000000E+00  0.00000000E+00  0.00000000E+00
  0.00000000E+00  0.00000000E+00  0.00000000E+00
  0.00000000E+00  0.00000000E+00  0.00000000E+00
  0.00000000E+00  0.00000000E+00  0.00000000E+00
  0.00000000E+00  0.00000000E+00  0.00000000E+00
  0.00000000E+00  0.00000000E+00  0.00000000E+00
  0.00000000E+00  0.00000000E+00  0.00000000E+00
  0.00000000E+00  0.00000000E+00  0.00000000E+00
  0.00000000E+00  0.00000000E+00  0.00000000E+00
  0.00000000E+00  0.00000000E+00  0.00000000E+00
  0.00000000E+00  0.00000000E+00  0.00000000E+00
  0.00000000E+00  0.00000000E+00  0.00000000E+00
  0.00000000E+00  0.00000000E+00  0.00000000E+00
  0.00000000E+00  0.00000000E+00  0.00000000E+00
  0.00000000E+00  0.00000000E+00  0.00000000E+00
  0.00000000E+00  0.00000000E+00  0.00000000E+00
  0.00000000E+00  0.00000000E+00  0.00000000E+00
  0.00000000E+00  0.00000000E+00  0.00000000E+00
  0.00000000E+00  0.00000000E+00  0.00000000E+00
  0.00000000E+00  0.00000000E+00  0.00000000E+00
  0.00000000E+00  0.00000000E+00  0.00000000E+00
  0.00000000E+00  0.00000000E+00  0.00000000E+00
  0.00000000E+00  0.00000000E+00  0.00000000E+00
  0.00000000E+00  0.00000000E+00  0.00000000E+00
  0.00000000E+00  0.00000000E+00  0.00000000E+00
  0.00000000E+00  0.00000000E+00  0.00000000E+00
  0.00000000E+00  0.00000000E+00  0.00000000E+00
  0.00000000E+00  0.00000000E+00  0.00000000E+00
  0.00000000E+00  0.00000000E+00  0.00000000E+00
  0.00000000E+00  0.00000000E+00  0.00000000E+00
  0.00000000E+00  0.00000000E+00  0.00000000E+00
  0.00000000E+00  0.00000000E+00  0.00000000E+00
  0.00000000E+00  0.00000000E+00  0.00000000E+00
  0.00000000E+00  0.00000000E+00  0.00000000E+00
  0.00000000E+00  0.00000000E+00  0.00000000E+00
  0.00000000E+00  0.00000000E+00  0.00000000E+00
  0.00000000E+00  0.00000000E+00  0.00000000E+00
  0.00000000E+00  0.00000000E+00  0.00000000E+00
  0.00000000E+00  0.00000000E+00  0.00000000E+00
  0.00000000E+00  0.00000000E+00  0.00000000E+00
  0.00000000E+00  0.00000000E+00  0.00000000E+00
  0.00000000E+00  0.00000000E+00  0.00000000E+00
  0.00000000E+00  0.00000000E+00  0.00000000E+00
  0.00000000E+00  0.00000000E+00  0.00000000E+00
  0.00000000E+00  0.00000000E+00  0.00000000E+00
  0.00000000E+00  0.00000000E+00  0.00000000E+00
  0.00000000E+00  0.00000000E+00  0.00000000E+00
  0.00000000E+00  0.00000000E+00  0.00000000E+00
  0.00000000E+00  0.00000000E+00  0.00000000E+00
  0.00000000E+00  0.00000000E+00  0.00000000E+00
  0.00000000E+00  0.00000000E+00  0.00000000E+00
  0.00000000E+00  0.00000000E+00  0.00000000E+00
  0.00000000E+00  0.00000000E+00  0.00000000E+00
  0.00000000E+00  0.00000000E+00  0.00000000E+00
  0.00000000E+00  0.00000000E+00  0.00000000E+00
  0.00000000E+00  0.00000000E+00  0.00000000E+00
  0.00000000E+00  0.00000000E+00  0.00000000E+00
  0.00000000E+00  0.00000000E+00  0.00000000E+00
  0.00000000E+00  0.00000000E+00  0.00000000E+00
  0.00000000E+00  0.00000000E+00  0.00000000E+00
  0.00000000E+00  0.00000000E+00  0.00000000E+00
  0.00000000E+00  0.00000000E+00  0.00000000E+00
  0.00000000E+00  0.00000000E+00  0.00000000E+00
  0.00000000E+00  0.00000000E+00  0.00000000E+00
