Cs16 Pb16 I48 O1                        
   1.0000000000000000     
    17.7788800000000009    0.0000000000000000    0.0000000000000000
     0.0000000000000000   17.9504599999999996    0.0000000000000000
     0.0000000000000000    0.0000000000000000   12.7661599999999993
   Cs   Pb   I    O 
    16    16    48     1
Direct
  0.2492037957901459  0.2135228935893572  0.2279456425777283
  0.2572944709072946  0.7239260503623718  0.2526233568374672
  0.7642883689352475  0.2201122492470553  0.2532300405250216
  0.7592357969764989  0.7159635820734654  0.2494913901354376
  0.0105884187770561  0.0337843043893471  0.7502759823302562
  0.0111173188134338  0.5297055945327623  0.7435675554931037
  0.5074742210479906  0.0301994896230133  0.7570638159311117
  0.5092313715103844  0.5365781448303204  0.7519272057856907
  0.2434264488558962  0.2795762539180269  0.7627925717938976
  0.2438773589543609  0.7819776555336375  0.7458649468665856
  0.7437380077705962  0.2866699641576348  0.7575357059915880
  0.7415792334374175  0.7825725812725448  0.7504519421885926
  0.4709270092576338  0.4625252353760501  0.2767350009188614
  0.4956348429558869  0.9736304433763531  0.2491439716755511
  0.9958954850333503  0.4718365128000750  0.2521428136728254
  0.9899298706592123  0.9660179310896977  0.2492828932202553
 -0.0003101441754020  0.2527984160815002  0.9991971649932634
  0.0004437744867133  0.7484238998707269 -0.0001313300466321
  0.5030260075169710  0.2509427045417346  0.0018957946539603
  0.5020426658893361  0.7509716797234713  0.0032953338971265
  0.2500979657984490 -0.0023409970972382  0.0002960318323651
  0.2532980791725769  0.5029169962004535 -0.0022680123603654
  0.7528830616833714  0.0006319709654820  0.0013590633556922
  0.7485104632260309  0.5009566647667948  0.0033251012828678
  0.0042222820570741  0.2527430219215586  0.5013236931198681
  0.0024266336199487  0.7497985007673732  0.5028277470018586
  0.5130086331281150  0.2446192167711120  0.5043292788590339
  0.5047024900262261  0.7573606550656155  0.5019438383700190
  0.2500937936919054  0.0007961230390714  0.5002739230852309
  0.2630257900679533  0.4991674619816370  0.4931254824822860
  0.7571302266222549 -0.0006632465215447  0.5008488783753077
  0.7500946647591273  0.5009365447198370  0.4997063604105306
  0.1521292980640655  0.1520377603646946  0.5395606247339607
  0.1446514512126905  0.6522528726007011  0.5402283464955497
  0.6602619001644313  0.1509563560793238  0.5463504112213202
  0.6490900472377680  0.6507479426336719  0.5395550975867249
  0.3529119407048023  0.3520017031539041  0.0405674424244780
  0.3518102340133843  0.8519161743827083  0.0392245257224649
  0.8509722469398213  0.3528728953996723  0.0391825115731308
  0.8523329619480748  0.8508161726460453  0.0405668302014725
  0.1462941262574083  0.1464506784440340  0.9629936378336292
  0.1504045053605324  0.6488440388773945  0.9551917307857082
  0.6513323951034238  0.1488163432455032  0.9632232958626310
  0.6507352072409195  0.6511533160245648  0.9629638485627490
  0.3412595237836424  0.3052314716253693  0.4719328397738973
  0.3531323094115326  0.8560016778908645  0.4624392556443270
  0.8533776387493247  0.3544014059009469  0.4650831531045830
  0.8489309657093773  0.8504945042061246  0.4600458809726872
  0.2110783885645508  0.0007984825321211  0.2504475649908821
  0.2139434195449985  0.5103974570591577  0.2441198806362687
  0.7163406394929485  0.0070597958432633  0.2516458690846832
  0.7052270427385040  0.5027568753759838  0.2516115159429207
  0.0342121229888305  0.2562001948735067  0.2499289955536914
  0.0373025584290043  0.7524170781903674  0.2499525900041495
  0.5428605005019205  0.2529817422544461  0.2551909818728848
  0.5409879370163014  0.7604421600472356  0.2524077782054637
  0.3983267084281354  0.1024554148372360  0.0384093146398158
  0.4026789534754644  0.6014581256946145  0.0420404926824519
  0.9011085793382028  0.1024903773183740  0.0387282244286308
  0.8994096901626550  0.6007797465965443  0.0413416225495404
  0.4012373998600185  0.1009764887830547  0.4661053105991487
  0.3965689918340639  0.6169375361180272  0.4652503521199776
  0.9052392866295720  0.1008698931003747  0.4632515351541923
  0.8982048097504399  0.6020479089938782  0.4605104256828013
  0.1112099332786548  0.3952480537603277  0.5338561936120868
  0.1002872420431104  0.9010370659023760  0.5383255898975827
  0.5987418537406664  0.4006117876252812  0.5429592979401957
  0.6030592372791447  0.9060937529580417  0.5407118061808159
  0.1033954490800806  0.3993691354309226  0.9621073647254923
  0.1015598406479899  0.8975984441945458  0.9597489759948520
  0.6018676729876955  0.3989803955954397  0.9571856903129038
  0.6028459502660968  0.9001363281374006  0.9656340413713131
  0.4659861827115336  0.2441742833896599  0.7549115258530011
  0.4661118178363354  0.7523991767291780  0.7527673635733829
  0.9637982124763740  0.2490628898370950  0.7502549257762998
  0.9602621468750209  0.7448849915180388  0.7507370820642996
  0.2916402545168397  0.4927548045484075  0.7480518403957389
  0.2866613173194795  0.9973777089745294  0.7508121601030059
  0.7876719123630235  0.5005530351091009  0.7513234496129412
  0.7922050649666604  0.9948773987122193  0.7518764052342930
  0.3538536793011980  0.4217146684197683  0.4490841647424177

  0.00000000E+00  0.00000000E+00  0.00000000E+00
  0.00000000E+00  0.00000000E+00  0.00000000E+00
  0.00000000E+00  0.00000000E+00  0.00000000E+00
  0.00000000E+00  0.00000000E+00  0.00000000E+00
  0.00000000E+00  0.00000000E+00  0.00000000E+00
  0.00000000E+00  0.00000000E+00  0.00000000E+00
  0.00000000E+00  0.00000000E+00  0.00000000E+00
  0.00000000E+00  0.00000000E+00  0.00000000E+00
  0.00000000E+00  0.00000000E+00  0.00000000E+00
  0.00000000E+00  0.00000000E+00  0.00000000E+00
  0.00000000E+00  0.00000000E+00  0.00000000E+00
  0.00000000E+00  0.00000000E+00  0.00000000E+00
  0.00000000E+00  0.00000000E+00  0.00000000E+00
  0.00000000E+00  0.00000000E+00  0.00000000E+00
  0.00000000E+00  0.00000000E+00  0.00000000E+00
  0.00000000E+00  0.00000000E+00  0.00000000E+00
  0.00000000E+00  0.00000000E+00  0.00000000E+00
  0.00000000E+00  0.00000000E+00  0.00000000E+00
  0.00000000E+00  0.00000000E+00  0.00000000E+00
  0.00000000E+00  0.00000000E+00  0.00000000E+00
  0.00000000E+00  0.00000000E+00  0.00000000E+00
  0.00000000E+00  0.00000000E+00  0.00000000E+00
  0.00000000E+00  0.00000000E+00  0.00000000E+00
  0.00000000E+00  0.00000000E+00  0.00000000E+00
  0.00000000E+00  0.00000000E+00  0.00000000E+00
  0.00000000E+00  0.00000000E+00  0.00000000E+00
  0.00000000E+00  0.00000000E+00  0.00000000E+00
  0.00000000E+00  0.00000000E+00  0.00000000E+00
  0.00000000E+00  0.00000000E+00  0.00000000E+00
  0.00000000E+00  0.00000000E+00  0.00000000E+00
  0.00000000E+00  0.00000000E+00  0.00000000E+00
  0.00000000E+00  0.00000000E+00  0.00000000E+00
  0.00000000E+00  0.00000000E+00  0.00000000E+00
  0.00000000E+00  0.00000000E+00  0.00000000E+00
  0.00000000E+00  0.00000000E+00  0.00000000E+00
  0.00000000E+00  0.00000000E+00  0.00000000E+00
  0.00000000E+00  0.00000000E+00  0.00000000E+00
  0.00000000E+00  0.00000000E+00  0.00000000E+00
  0.00000000E+00  0.00000000E+00  0.00000000E+00
  0.00000000E+00  0.00000000E+00  0.00000000E+00
  0.00000000E+00  0.00000000E+00  0.00000000E+00
  0.00000000E+00  0.00000000E+00  0.00000000E+00
  0.00000000E+00  0.00000000E+00  0.00000000E+00
  0.00000000E+00  0.00000000E+00  0.00000000E+00
  0.00000000E+00  0.00000000E+00  0.00000000E+00
  0.00000000E+00  0.00000000E+00  0.00000000E+00
  0.00000000E+00  0.00000000E+00  0.00000000E+00
  0.00000000E+00  0.00000000E+00  0.00000000E+00
  0.00000000E+00  0.00000000E+00  0.00000000E+00
  0.00000000E+00  0.00000000E+00  0.00000000E+00
  0.00000000E+00  0.00000000E+00  0.00000000E+00
  0.00000000E+00  0.00000000E+00  0.00000000E+00
  0.00000000E+00  0.00000000E+00  0.00000000E+00
  0.00000000E+00  0.00000000E+00  0.00000000E+00
  0.00000000E+00  0.00000000E+00  0.00000000E+00
  0.00000000E+00  0.00000000E+00  0.00000000E+00
  0.00000000E+00  0.00000000E+00  0.00000000E+00
  0.00000000E+00  0.00000000E+00  0.00000000E+00
  0.00000000E+00  0.00000000E+00  0.00000000E+00
  0.00000000E+00  0.00000000E+00  0.00000000E+00
  0.00000000E+00  0.00000000E+00  0.00000000E+00
  0.00000000E+00  0.00000000E+00  0.00000000E+00
  0.00000000E+00  0.00000000E+00  0.00000000E+00
  0.00000000E+00  0.00000000E+00  0.00000000E+00
  0.00000000E+00  0.00000000E+00  0.00000000E+00
  0.00000000E+00  0.00000000E+00  0.00000000E+00
  0.00000000E+00  0.00000000E+00  0.00000000E+00
  0.00000000E+00  0.00000000E+00  0.00000000E+00
  0.00000000E+00  0.00000000E+00  0.00000000E+00
  0.00000000E+00  0.00000000E+00  0.00000000E+00
  0.00000000E+00  0.00000000E+00  0.00000000E+00
  0.00000000E+00  0.00000000E+00  0.00000000E+00
  0.00000000E+00  0.00000000E+00  0.00000000E+00
  0.00000000E+00  0.00000000E+00  0.00000000E+00
  0.00000000E+00  0.00000000E+00  0.00000000E+00
  0.00000000E+00  0.00000000E+00  0.00000000E+00
  0.00000000E+00  0.00000000E+00  0.00000000E+00
  0.00000000E+00  0.00000000E+00  0.00000000E+00
  0.00000000E+00  0.00000000E+00  0.00000000E+00
  0.00000000E+00  0.00000000E+00  0.00000000E+00
  0.00000000E+00  0.00000000E+00  0.00000000E+00
