Cs16 Pb16 I48 Br1                       
   1.0000000000000000     
    17.7788800000000009    0.0000000000000000    0.0000000000000000
     0.0000000000000000   17.9504599999999996    0.0000000000000000
     0.0000000000000000    0.0000000000000000   12.7661599999999993
   Cs   Pb   I    Br
    16    16    48     1
Direct
  0.2613790932853577  0.2066627051551877  0.2158460189029050
  0.2412979581293365  0.7300856094332204  0.2514736024000058
  0.7429714576011408  0.2306037844455955  0.2592126753968310
  0.7687482581541736  0.7171366864155689  0.2540802114729507
  0.0039886791647317  0.0296893139622148  0.7504200369324822
  0.0111325639604203  0.5332194884495807  0.7501416022151809
  0.5084360008208371  0.0386257728930567  0.7468367813192438
  0.5086249552319294  0.5296584521850757  0.7575444420729517
  0.2275566814147923  0.2833336792103341  0.7651963549274499
  0.2477573713084743  0.7713470836309854  0.7364194140847364
  0.7578557392989301  0.2656506157694991  0.7765982226490633
  0.7332729319205880  0.7865068334195252  0.7417112725263814
  0.4952928631272790  0.4928829652322654  0.2359780847694031
  0.4929428667630638  0.9662659861543914  0.2466158588780379
  0.0048067380076820  0.4743688009704211  0.2577537920581555
  0.9909184756753978  0.9742248827718575  0.2557964256592837
  0.0014728580869445  0.2502089806184952  0.0078818279681240
  0.9970465718849002  0.7524059632427412  0.9987597032547506
  0.4961102400459187  0.2551673548594346  0.0020314529283025
  0.5048649680651836  0.7511913229257321 -0.0015911726355763
  0.2524866883414433  0.9942581098316463  0.9978236193555469
  0.2479475020330548  0.5037850927268251  0.0033128975754113
  0.7484238568999720  0.0022181539129062  0.0047174538655131
  0.7539748857883074  0.4994616659459611  0.0013702509141396
  0.0108505490921963  0.2557190655237386  0.5025873939901123
  0.0040158919550736  0.7517873711192192  0.5081994649419114
  0.4684305109043647  0.2737437896896837  0.5021777005101744
  0.5032667643780928  0.7511517934263532  0.4960414039088782
  0.2573410155341717  0.0024921447257403  0.5004980764052843
  0.2834457747275840  0.4766385967940795  0.4993029968627108
  0.7517016301188456  0.0064162881216554  0.5009536691358315
  0.7568561440779353  0.4938133107773212  0.5022791974394035
  0.1415243427177008  0.1372586012256269  0.5561860804139054
  0.1393125528132127  0.6458497916828239  0.5336613539533432
  0.6514435360263168  0.1569890288402365  0.5353864091050692
  0.6423330385470966  0.6360394223476544  0.5412981578216776
  0.3472881187148417  0.3551261011802946  0.0299168854877019
  0.3538797891103873  0.8486378763557534  0.0422155862003116
  0.8524339309040684  0.3499280363948734  0.0473616883259514
  0.8474383696689105  0.8534285587007587  0.0374735151970285
  0.1459649739914986  0.1415472919127145  0.9638333368505234
  0.1473363807254692  0.6528259218265189  0.9629799026042611
  0.6437133081318217  0.1500310599647074  0.9759064871969592
  0.6530583537609855  0.6478213446959942  0.9581955046839423
  0.2953464676680335  0.3005769583964117  0.4748916636312545
  0.3567530331078755  0.8567091818439002  0.4555376909876238
  0.8667313223186575  0.3584420125952961  0.4447353001259221
  0.8479339780223207  0.8600440915593613  0.4693747102599404
  0.2138535738311801  0.9969118769294331  0.2499202469715878
  0.2261117991949911  0.5061619198922461  0.2487033518433337
  0.7115121994311314  0.0112319933070875  0.2528096329920975
  0.7142431229205555  0.5023968206504528  0.2521592377253161
  0.0483005003519118  0.2535521525361109  0.2537342856925511
  0.0229400294312714  0.7559585517616217  0.2522171284271001
  0.5179766782665192  0.2699834089767992  0.2511132771153213
  0.5484213618541465  0.7520240791399377  0.2461260350857717
  0.4007849885019865  0.0986144799481175  0.0309977406095238
  0.3985301139959576  0.6060657820685426  0.0202055910690392
  0.8978615592827867  0.1042535864450126  0.0389563607587656
  0.9013483535685266  0.5989499411841107  0.0411804670482425
  0.4053921677075719  0.0968527170926734  0.4629351852862085
  0.3788627741361466  0.6304636859510118  0.4438315982895681
  0.8972528386625142  0.1084659667234974  0.4644235063396647
  0.8929726686553204  0.6022720940314858  0.4665459012400518
  0.1025074214504892  0.4067551259832293  0.5356367982539885
  0.1036084766752699  0.8951350540147720  0.5407655730836208
  0.6442172293749000  0.3467506927133962  0.5373587953744886
  0.6019820927351117  0.9046589540710840  0.5368149170797872
  0.0991522592781313  0.4027330712605356  0.9706116252589312
  0.1001824610958974  0.8974071344578681  0.9613540863581398
  0.6028551644245249  0.3976237681294496  0.9640339346720642
  0.5999074282845942  0.9029173360785361  0.9588256853579322
  0.4525991469105562  0.2515552319195629  0.7505644958965491
  0.4693470865151632  0.7472145595888046  0.7465670621417104
  0.9740676803316182  0.2515627051181772  0.7550327312412085
  0.9542325185930631  0.7461368233870189  0.7528076350396405
  0.2851087974900833  0.4987157207863543  0.7446454703374735
  0.2925909978812925  0.9865550251890880  0.7502332769222789
  0.7927241037376506  0.4843683594882199  0.7519308710496065
  0.7822854977742149  0.0059686442104509  0.7532069574978727
  0.4522069080880368  0.4394028097027158  0.5086485136579324

  0.00000000E+00  0.00000000E+00  0.00000000E+00
  0.00000000E+00  0.00000000E+00  0.00000000E+00
  0.00000000E+00  0.00000000E+00  0.00000000E+00
  0.00000000E+00  0.00000000E+00  0.00000000E+00
  0.00000000E+00  0.00000000E+00  0.00000000E+00
  0.00000000E+00  0.00000000E+00  0.00000000E+00
  0.00000000E+00  0.00000000E+00  0.00000000E+00
  0.00000000E+00  0.00000000E+00  0.00000000E+00
  0.00000000E+00  0.00000000E+00  0.00000000E+00
  0.00000000E+00  0.00000000E+00  0.00000000E+00
  0.00000000E+00  0.00000000E+00  0.00000000E+00
  0.00000000E+00  0.00000000E+00  0.00000000E+00
  0.00000000E+00  0.00000000E+00  0.00000000E+00
  0.00000000E+00  0.00000000E+00  0.00000000E+00
  0.00000000E+00  0.00000000E+00  0.00000000E+00
  0.00000000E+00  0.00000000E+00  0.00000000E+00
  0.00000000E+00  0.00000000E+00  0.00000000E+00
  0.00000000E+00  0.00000000E+00  0.00000000E+00
  0.00000000E+00  0.00000000E+00  0.00000000E+00
  0.00000000E+00  0.00000000E+00  0.00000000E+00
  0.00000000E+00  0.00000000E+00  0.00000000E+00
  0.00000000E+00  0.00000000E+00  0.00000000E+00
  0.00000000E+00  0.00000000E+00  0.00000000E+00
  0.00000000E+00  0.00000000E+00  0.00000000E+00
  0.00000000E+00  0.00000000E+00  0.00000000E+00
  0.00000000E+00  0.00000000E+00  0.00000000E+00
  0.00000000E+00  0.00000000E+00  0.00000000E+00
  0.00000000E+00  0.00000000E+00  0.00000000E+00
  0.00000000E+00  0.00000000E+00  0.00000000E+00
  0.00000000E+00  0.00000000E+00  0.00000000E+00
  0.00000000E+00  0.00000000E+00  0.00000000E+00
  0.00000000E+00  0.00000000E+00  0.00000000E+00
  0.00000000E+00  0.00000000E+00  0.00000000E+00
  0.00000000E+00  0.00000000E+00  0.00000000E+00
  0.00000000E+00  0.00000000E+00  0.00000000E+00
  0.00000000E+00  0.00000000E+00  0.00000000E+00
  0.00000000E+00  0.00000000E+00  0.00000000E+00
  0.00000000E+00  0.00000000E+00  0.00000000E+00
  0.00000000E+00  0.00000000E+00  0.00000000E+00
  0.00000000E+00  0.00000000E+00  0.00000000E+00
  0.00000000E+00  0.00000000E+00  0.00000000E+00
  0.00000000E+00  0.00000000E+00  0.00000000E+00
  0.00000000E+00  0.00000000E+00  0.00000000E+00
  0.00000000E+00  0.00000000E+00  0.00000000E+00
  0.00000000E+00  0.00000000E+00  0.00000000E+00
  0.00000000E+00  0.00000000E+00  0.00000000E+00
  0.00000000E+00  0.00000000E+00  0.00000000E+00
  0.00000000E+00  0.00000000E+00  0.00000000E+00
  0.00000000E+00  0.00000000E+00  0.00000000E+00
  0.00000000E+00  0.00000000E+00  0.00000000E+00
  0.00000000E+00  0.00000000E+00  0.00000000E+00
  0.00000000E+00  0.00000000E+00  0.00000000E+00
  0.00000000E+00  0.00000000E+00  0.00000000E+00
  0.00000000E+00  0.00000000E+00  0.00000000E+00
  0.00000000E+00  0.00000000E+00  0.00000000E+00
  0.00000000E+00  0.00000000E+00  0.00000000E+00
  0.00000000E+00  0.00000000E+00  0.00000000E+00
  0.00000000E+00  0.00000000E+00  0.00000000E+00
  0.00000000E+00  0.00000000E+00  0.00000000E+00
  0.00000000E+00  0.00000000E+00  0.00000000E+00
  0.00000000E+00  0.00000000E+00  0.00000000E+00
  0.00000000E+00  0.00000000E+00  0.00000000E+00
  0.00000000E+00  0.00000000E+00  0.00000000E+00
  0.00000000E+00  0.00000000E+00  0.00000000E+00
  0.00000000E+00  0.00000000E+00  0.00000000E+00
  0.00000000E+00  0.00000000E+00  0.00000000E+00
  0.00000000E+00  0.00000000E+00  0.00000000E+00
  0.00000000E+00  0.00000000E+00  0.00000000E+00
  0.00000000E+00  0.00000000E+00  0.00000000E+00
  0.00000000E+00  0.00000000E+00  0.00000000E+00
  0.00000000E+00  0.00000000E+00  0.00000000E+00
  0.00000000E+00  0.00000000E+00  0.00000000E+00
  0.00000000E+00  0.00000000E+00  0.00000000E+00
  0.00000000E+00  0.00000000E+00  0.00000000E+00
  0.00000000E+00  0.00000000E+00  0.00000000E+00
  0.00000000E+00  0.00000000E+00  0.00000000E+00
  0.00000000E+00  0.00000000E+00  0.00000000E+00
  0.00000000E+00  0.00000000E+00  0.00000000E+00
  0.00000000E+00  0.00000000E+00  0.00000000E+00
  0.00000000E+00  0.00000000E+00  0.00000000E+00
  0.00000000E+00  0.00000000E+00  0.00000000E+00
