Cs16 As1 Pb16 I48                       
   1.0000000000000000     
    17.7788800000000009    0.0000000000000000    0.0000000000000000
     0.0000000000000000   17.9504599999999996    0.0000000000000000
     0.0000000000000000    0.0000000000000000   12.7661599999999993
   Cs   As   Pb   I 
    16     1    16    48
Direct
  0.2562738616110815  0.2089645551381849  0.2129235408750021
  0.2559307105231557  0.7184458268947872  0.2534905291161976
  0.7520558866252062  0.2198460362430825  0.2545207902440467
  0.7650539717393083  0.7227549752010450  0.2556720676110799
  0.0044140313494179  0.0294350677751895  0.7483472945719006
  0.0122634877856255  0.5376263053494258  0.7547362741716160
  0.5139653065250819  0.0394625757463146  0.7426790227523633
  0.5105586782746198  0.5339871484845832  0.7516224705685969
  0.2320578311588482  0.2787210390490449  0.7814871177705844
  0.2438523082629701  0.7835380840516071  0.7481959932304957
  0.7460090260653666  0.2813520808279434  0.7478286872139966
  0.7426850552977877  0.7874481949303112  0.7476264392967829
  0.5049078212900359  0.4822908254518197  0.2335860370253908
  0.4915130181394990  0.9643032357420227  0.2443500908877427
  0.9957400643970492  0.4703798724611812  0.2553793795094473
  0.9950433782970872  0.9720564366551980  0.2563670247278212
  0.3825609408633961  0.3871105771180479  0.4823664335963804
 -0.0028476905650249  0.2511061558789024  0.0066298266706796
  0.0010731811588511  0.7530561202472311  0.0008497270797944
  0.5012935098948005  0.2539643308403772  0.9959956617339212
  0.5041926553890100  0.7515760150253245 -0.0015822490649904
  0.2540061946063605  0.9960740365961233  0.9978740059165280
  0.2502213058364884  0.5028018109728971  0.0012394302255247
  0.7494539815736436  0.0024758964757143  0.0026691683634194
  0.7547306411347395  0.5028868321090814  0.9996007604312359
  0.0026515029164385  0.2565136298580117  0.5046403505739027
  0.0053909396643336  0.7553012766296430  0.5038910594145942
  0.4983903784657226  0.2622345114743720  0.4988378956764797
  0.5047180518890227  0.7527108676108424  0.5009619141564751
  0.2598562804697009  0.0018484378785873  0.4992721000457434
  0.2577939245436313  0.5003455643861815  0.5017910274467949
  0.7518262499113624  0.0063047438125567  0.5001845068198622
  0.7569968238804925  0.5034362032699541  0.5017375778275506
  0.1427212674948177  0.1410373297263421  0.5480155803882646
  0.1511963510075723  0.6541046882705279  0.5394768134507179
  0.6516484368680593  0.1537660107732565  0.5351560428446986
  0.6527630165289949  0.6504311659290833  0.5414543910860408
  0.3526928432823282  0.3552321123715634  0.0374906159337038
  0.3521684518591342  0.8482346389465604  0.0398588850265248
  0.8501453907263702  0.3511925220399854  0.0443298738785652
  0.8518506915591805  0.8544471645990606  0.0385060899232873
  0.1416393065220302  0.1394350758128855  0.9682256516816016
  0.1508973525430908  0.6516108530514630  0.9622876865227508
  0.6501661816894814  0.1529866789631185  0.9626150760237357
  0.6531867659718954  0.6506829021762852  0.9593780319086974
  0.2817078873700850  0.2826479651795042  0.4895822195302980
  0.3516956487513708  0.8482642450469171  0.4622776998381912
  0.8500221253694517  0.3505426917819859  0.4624833009805389
  0.8538762962115858  0.8567450433876513  0.4657187254400685
  0.2178073320830202  0.9981369689467990  0.2492996068423804
  0.2194614817642697  0.5018276238366298  0.2502930294066020
  0.7100901206698681  0.0046916299844412  0.2502381091065438
  0.7206819063427649  0.5078121329646645  0.2505949201604239
  0.0413389161585615  0.2551866986132893  0.2544122037812693
  0.0371954804078168  0.7568515664529167  0.2508249324582024
  0.5311951218289697  0.2649361612385961  0.2492347922952200
  0.5421321690792175  0.7504398936580757  0.2489037230660981
  0.4020810517497868  0.1018375064827479  0.0319489249082654
  0.3998016990627277  0.6042371720993486  0.0312762702811739
  0.8975392934854658  0.1033843915422525  0.0460343292583717
  0.9032778574021136  0.6017666922485453  0.0398798910513472
  0.4103379485751716  0.0924066399053455  0.4604550625599318
  0.4047896114382472  0.5999645483799760  0.4603166675453798
  0.8985464662744220  0.1052204612627600  0.4613823460020888
  0.9016424137878660  0.6037958589095062  0.4632169099367243
  0.0909410807614227  0.4093683754805438  0.5370100432035317
  0.1041001792443080  0.9007762714480644  0.5390535087468955
  0.6038581741791258  0.4021611842812932  0.5405961652617967
  0.6023727566759665  0.8996642557855886  0.5382575735719201
  0.1002567336952593  0.4007610972382938  0.9694990189332040
  0.1038005670055068  0.8985203228685211  0.9574351641087696
  0.6034978505540651  0.4015672495054162  0.9608719272414278
  0.5998955868431484  0.9024555536147112  0.9589023349784040
  0.4574825599879824  0.2530812893135351  0.7495322811781950
  0.4645758204097070  0.7471750991161091  0.7492861255989027
  0.9659732083830171  0.2470774857570688  0.7553294063470624
  0.9621544837874551  0.7502538428532174  0.7521199550185091
  0.2903830132329056  0.4903224506943570  0.7502602695431188
  0.2946297039193597  0.9963482559962706  0.7498079511894524
  0.7936577888636682  0.4954696204146539  0.7513352243062761
  0.7851403108488946  0.0023783139988962  0.7515857580578837

  0.00000000E+00  0.00000000E+00  0.00000000E+00
  0.00000000E+00  0.00000000E+00  0.00000000E+00
  0.00000000E+00  0.00000000E+00  0.00000000E+00
  0.00000000E+00  0.00000000E+00  0.00000000E+00
  0.00000000E+00  0.00000000E+00  0.00000000E+00
  0.00000000E+00  0.00000000E+00  0.00000000E+00
  0.00000000E+00  0.00000000E+00  0.00000000E+00
  0.00000000E+00  0.00000000E+00  0.00000000E+00
  0.00000000E+00  0.00000000E+00  0.00000000E+00
  0.00000000E+00  0.00000000E+00  0.00000000E+00
  0.00000000E+00  0.00000000E+00  0.00000000E+00
  0.00000000E+00  0.00000000E+00  0.00000000E+00
  0.00000000E+00  0.00000000E+00  0.00000000E+00
  0.00000000E+00  0.00000000E+00  0.00000000E+00
  0.00000000E+00  0.00000000E+00  0.00000000E+00
  0.00000000E+00  0.00000000E+00  0.00000000E+00
  0.00000000E+00  0.00000000E+00  0.00000000E+00
  0.00000000E+00  0.00000000E+00  0.00000000E+00
  0.00000000E+00  0.00000000E+00  0.00000000E+00
  0.00000000E+00  0.00000000E+00  0.00000000E+00
  0.00000000E+00  0.00000000E+00  0.00000000E+00
  0.00000000E+00  0.00000000E+00  0.00000000E+00
  0.00000000E+00  0.00000000E+00  0.00000000E+00
  0.00000000E+00  0.00000000E+00  0.00000000E+00
  0.00000000E+00  0.00000000E+00  0.00000000E+00
  0.00000000E+00  0.00000000E+00  0.00000000E+00
  0.00000000E+00  0.00000000E+00  0.00000000E+00
  0.00000000E+00  0.00000000E+00  0.00000000E+00
  0.00000000E+00  0.00000000E+00  0.00000000E+00
  0.00000000E+00  0.00000000E+00  0.00000000E+00
  0.00000000E+00  0.00000000E+00  0.00000000E+00
  0.00000000E+00  0.00000000E+00  0.00000000E+00
  0.00000000E+00  0.00000000E+00  0.00000000E+00
  0.00000000E+00  0.00000000E+00  0.00000000E+00
  0.00000000E+00  0.00000000E+00  0.00000000E+00
  0.00000000E+00  0.00000000E+00  0.00000000E+00
  0.00000000E+00  0.00000000E+00  0.00000000E+00
  0.00000000E+00  0.00000000E+00  0.00000000E+00
  0.00000000E+00  0.00000000E+00  0.00000000E+00
  0.00000000E+00  0.00000000E+00  0.00000000E+00
  0.00000000E+00  0.00000000E+00  0.00000000E+00
  0.00000000E+00  0.00000000E+00  0.00000000E+00
  0.00000000E+00  0.00000000E+00  0.00000000E+00
  0.00000000E+00  0.00000000E+00  0.00000000E+00
  0.00000000E+00  0.00000000E+00  0.00000000E+00
  0.00000000E+00  0.00000000E+00  0.00000000E+00
  0.00000000E+00  0.00000000E+00  0.00000000E+00
  0.00000000E+00  0.00000000E+00  0.00000000E+00
  0.00000000E+00  0.00000000E+00  0.00000000E+00
  0.00000000E+00  0.00000000E+00  0.00000000E+00
  0.00000000E+00  0.00000000E+00  0.00000000E+00
  0.00000000E+00  0.00000000E+00  0.00000000E+00
  0.00000000E+00  0.00000000E+00  0.00000000E+00
  0.00000000E+00  0.00000000E+00  0.00000000E+00
  0.00000000E+00  0.00000000E+00  0.00000000E+00
  0.00000000E+00  0.00000000E+00  0.00000000E+00
  0.00000000E+00  0.00000000E+00  0.00000000E+00
  0.00000000E+00  0.00000000E+00  0.00000000E+00
  0.00000000E+00  0.00000000E+00  0.00000000E+00
  0.00000000E+00  0.00000000E+00  0.00000000E+00
  0.00000000E+00  0.00000000E+00  0.00000000E+00
  0.00000000E+00  0.00000000E+00  0.00000000E+00
  0.00000000E+00  0.00000000E+00  0.00000000E+00
  0.00000000E+00  0.00000000E+00  0.00000000E+00
  0.00000000E+00  0.00000000E+00  0.00000000E+00
  0.00000000E+00  0.00000000E+00  0.00000000E+00
  0.00000000E+00  0.00000000E+00  0.00000000E+00
  0.00000000E+00  0.00000000E+00  0.00000000E+00
  0.00000000E+00  0.00000000E+00  0.00000000E+00
  0.00000000E+00  0.00000000E+00  0.00000000E+00
  0.00000000E+00  0.00000000E+00  0.00000000E+00
  0.00000000E+00  0.00000000E+00  0.00000000E+00
  0.00000000E+00  0.00000000E+00  0.00000000E+00
  0.00000000E+00  0.00000000E+00  0.00000000E+00
  0.00000000E+00  0.00000000E+00  0.00000000E+00
  0.00000000E+00  0.00000000E+00  0.00000000E+00
  0.00000000E+00  0.00000000E+00  0.00000000E+00
  0.00000000E+00  0.00000000E+00  0.00000000E+00
  0.00000000E+00  0.00000000E+00  0.00000000E+00
  0.00000000E+00  0.00000000E+00  0.00000000E+00
  0.00000000E+00  0.00000000E+00  0.00000000E+00
