Cs16 Pb16 Se1 I48                       
   1.0000000000000000     
    17.7788800000000009    0.0000000000000000    0.0000000000000000
     0.0000000000000000   17.9504599999999996    0.0000000000000000
     0.0000000000000000    0.0000000000000000   12.7661599999999993
   Cs   Pb   Se   I 
    16    16     1    48
Direct
  0.2572773677238537  0.2109787594458717  0.2309838107083048
  0.2603279912251556  0.7225348435442496  0.2530673042194077
  0.7616696866247102  0.2159680788957325  0.2512929468482504
  0.7579822562864503  0.7183124074811436  0.2507250563445309
  0.0081026329136663  0.0330930327841735  0.7501690793981767
  0.0127497073472371  0.5396200060259354  0.7626052238269015
  0.5139043906225017  0.0332133146697705  0.7463665598195458
  0.4954426410637355  0.5228566361019261  0.7402351265452397
  0.2435247405084423  0.2767720271088902  0.7721217401539030
  0.2462102949590908  0.7866091230221348  0.7533949430607566
  0.7482295706563945  0.2837378645792820  0.7551955855805887
  0.7399927722958153  0.7798484706235284  0.7468246844801718
  0.4990290857903095  0.4731187269251161  0.2406438451709827
  0.4918793795926431  0.9680950248417494  0.2523169896481500
  0.9883488481182283  0.4681411393495404  0.2477743607356504
  0.9930608381555578  0.9702975069283671  0.2503974408014987
  0.9984500000327065  0.2504938977610989  0.0035393389430397
  0.0008765318877381  0.7528790416293207  0.0014849467926179
  0.5024383053714336  0.2508529588143603  0.9947935302614772
  0.5016868922986841  0.7489616819926465 -0.0017386306657102
  0.2527340006308817  0.9987143550151552  0.9996186701848371
  0.2482705878637217  0.5020505695783297  0.0027913319812319
  0.7497091344735737 -0.0008088696031247  0.0017219771451530
  0.7512928925196510  0.5018137470614172 -0.0006446399988868
  0.0001599944159277  0.2524052953111134  0.5013581751382826
  0.0005740455821792  0.7544143430006925  0.5007844392240975
  0.5085368104396779  0.2499585250480620  0.4925730372679238
  0.4993381277860994  0.7476400889109518  0.4986792476215401
  0.2508056635396629  0.0039047986953848  0.5010822145207240
  0.2354925488589736  0.5037550934452759  0.5020054985799071
  0.7523306894772379  0.0000023368765502  0.5025928873811935
  0.7575826200284721  0.5030989988730926  0.5024393187240243
  0.4353803935283398  0.3908895541185265  0.5012068473916081
  0.1496090827992095  0.1508351593101588  0.5452219043194063
  0.1520874812941893  0.6582396247046270  0.5437258356561733
  0.6606226338912791  0.1480869515437913  0.5447301164667384
  0.6490520240872111  0.6466759075624191  0.5355104719473289
  0.3531626411788684  0.3542456955768846  0.0402388938375145
  0.3523159070203963  0.8504284749180899  0.0364269241747211
  0.8502698135662495  0.3505946323817005  0.0398546183544586
  0.8516015274086653  0.8525739491543209  0.0433300744421013
  0.1463772174000667  0.1448325171404241  0.9688642478417919
  0.1511036766315348  0.6526950809234352  0.9628608592836205
  0.6505020756910229  0.1493337519100296  0.9589744151242325
  0.6516869707059429  0.6496891748319671  0.9634314689227544
  0.2882417642270000  0.3314360504957968  0.4788761483675247
  0.3540451964872620  0.8548507558934488  0.4649494868053077
  0.8491106989764571  0.3482075880550098  0.4629804728065041
  0.8524543056858956  0.8511705485496760  0.4571590382396750
  0.2145306637991123  0.9985231191699597  0.2501936110233328
  0.2081562418076140  0.5101139832596019  0.2515538203906353
  0.7120003819635203  0.0042624033411769  0.2510169976148948
  0.7184575289616491  0.5030228211124209  0.2499743263542356
  0.0386676670747803  0.2537015181132097  0.2526739961266540
  0.0407567341455851  0.7572478172363803  0.2503639084960183
  0.5440336017839008  0.2567568462778833  0.2483511176639180
  0.5370094004054053  0.7528001939019692  0.2485229747032407
  0.4013029331810025  0.1017508758753403  0.0382879043472209
  0.3988362943786510  0.6016390417095110  0.0343408168642621
  0.8984799466008691  0.1015685917368226  0.0395263141165912
  0.9003623293646946  0.6034173900514143  0.0388355051389380
  0.3964946646248150  0.1093184970013314  0.4537153340998114
  0.3963656969642116  0.6020770681254010  0.4598941382231652
  0.9035728901910522  0.1013796335624933  0.4645201748862240
  0.9033130525653449  0.6058427084200438  0.4579204650507528
  0.0794237287468466  0.4176548164620663  0.5311266659541189
  0.1029678822393698  0.9030079889450472  0.5408947188900279
  0.6145342013128611  0.3982482106217483  0.5456916031887524
  0.6031408196806464  0.8981016587842163  0.5364868251291216
  0.0999472722178955  0.3990589063142735  0.9687461682072386
  0.1027406645936964  0.9000804226105462  0.9588758131655135
  0.6020523878383039  0.4009228857745313  0.9560065449426359
  0.6007993889014408  0.8988642858704170  0.9600798717918398
  0.4646651521706805  0.2457646523094545  0.7516073678247553
  0.4647773000938478  0.7420897634302532  0.7485991183438134
  0.9669141130243500  0.2483654248856411  0.7529916486237157
  0.9610568986438444  0.7514534325157450  0.7508009612894641
  0.2752629423032679  0.4940436061683949  0.7518039355024491
  0.2923091247746916  0.0008392631997816  0.7504045045443891
  0.7953091236080778  0.4990901061624867  0.7506994407358111
  0.7897745456195514 -0.0075301274752376  0.7517785362943779

  0.00000000E+00  0.00000000E+00  0.00000000E+00
  0.00000000E+00  0.00000000E+00  0.00000000E+00
  0.00000000E+00  0.00000000E+00  0.00000000E+00
  0.00000000E+00  0.00000000E+00  0.00000000E+00
  0.00000000E+00  0.00000000E+00  0.00000000E+00
  0.00000000E+00  0.00000000E+00  0.00000000E+00
  0.00000000E+00  0.00000000E+00  0.00000000E+00
  0.00000000E+00  0.00000000E+00  0.00000000E+00
  0.00000000E+00  0.00000000E+00  0.00000000E+00
  0.00000000E+00  0.00000000E+00  0.00000000E+00
  0.00000000E+00  0.00000000E+00  0.00000000E+00
  0.00000000E+00  0.00000000E+00  0.00000000E+00
  0.00000000E+00  0.00000000E+00  0.00000000E+00
  0.00000000E+00  0.00000000E+00  0.00000000E+00
  0.00000000E+00  0.00000000E+00  0.00000000E+00
  0.00000000E+00  0.00000000E+00  0.00000000E+00
  0.00000000E+00  0.00000000E+00  0.00000000E+00
  0.00000000E+00  0.00000000E+00  0.00000000E+00
  0.00000000E+00  0.00000000E+00  0.00000000E+00
  0.00000000E+00  0.00000000E+00  0.00000000E+00
  0.00000000E+00  0.00000000E+00  0.00000000E+00
  0.00000000E+00  0.00000000E+00  0.00000000E+00
  0.00000000E+00  0.00000000E+00  0.00000000E+00
  0.00000000E+00  0.00000000E+00  0.00000000E+00
  0.00000000E+00  0.00000000E+00  0.00000000E+00
  0.00000000E+00  0.00000000E+00  0.00000000E+00
  0.00000000E+00  0.00000000E+00  0.00000000E+00
  0.00000000E+00  0.00000000E+00  0.00000000E+00
  0.00000000E+00  0.00000000E+00  0.00000000E+00
  0.00000000E+00  0.00000000E+00  0.00000000E+00
  0.00000000E+00  0.00000000E+00  0.00000000E+00
  0.00000000E+00  0.00000000E+00  0.00000000E+00
  0.00000000E+00  0.00000000E+00  0.00000000E+00
  0.00000000E+00  0.00000000E+00  0.00000000E+00
  0.00000000E+00  0.00000000E+00  0.00000000E+00
  0.00000000E+00  0.00000000E+00  0.00000000E+00
  0.00000000E+00  0.00000000E+00  0.00000000E+00
  0.00000000E+00  0.00000000E+00  0.00000000E+00
  0.00000000E+00  0.00000000E+00  0.00000000E+00
  0.00000000E+00  0.00000000E+00  0.00000000E+00
  0.00000000E+00  0.00000000E+00  0.00000000E+00
  0.00000000E+00  0.00000000E+00  0.00000000E+00
  0.00000000E+00  0.00000000E+00  0.00000000E+00
  0.00000000E+00  0.00000000E+00  0.00000000E+00
  0.00000000E+00  0.00000000E+00  0.00000000E+00
  0.00000000E+00  0.00000000E+00  0.00000000E+00
  0.00000000E+00  0.00000000E+00  0.00000000E+00
  0.00000000E+00  0.00000000E+00  0.00000000E+00
  0.00000000E+00  0.00000000E+00  0.00000000E+00
  0.00000000E+00  0.00000000E+00  0.00000000E+00
  0.00000000E+00  0.00000000E+00  0.00000000E+00
  0.00000000E+00  0.00000000E+00  0.00000000E+00
  0.00000000E+00  0.00000000E+00  0.00000000E+00
  0.00000000E+00  0.00000000E+00  0.00000000E+00
  0.00000000E+00  0.00000000E+00  0.00000000E+00
  0.00000000E+00  0.00000000E+00  0.00000000E+00
  0.00000000E+00  0.00000000E+00  0.00000000E+00
  0.00000000E+00  0.00000000E+00  0.00000000E+00
  0.00000000E+00  0.00000000E+00  0.00000000E+00
  0.00000000E+00  0.00000000E+00  0.00000000E+00
  0.00000000E+00  0.00000000E+00  0.00000000E+00
  0.00000000E+00  0.00000000E+00  0.00000000E+00
  0.00000000E+00  0.00000000E+00  0.00000000E+00
  0.00000000E+00  0.00000000E+00  0.00000000E+00
  0.00000000E+00  0.00000000E+00  0.00000000E+00
  0.00000000E+00  0.00000000E+00  0.00000000E+00
  0.00000000E+00  0.00000000E+00  0.00000000E+00
  0.00000000E+00  0.00000000E+00  0.00000000E+00
  0.00000000E+00  0.00000000E+00  0.00000000E+00
  0.00000000E+00  0.00000000E+00  0.00000000E+00
  0.00000000E+00  0.00000000E+00  0.00000000E+00
  0.00000000E+00  0.00000000E+00  0.00000000E+00
  0.00000000E+00  0.00000000E+00  0.00000000E+00
  0.00000000E+00  0.00000000E+00  0.00000000E+00
  0.00000000E+00  0.00000000E+00  0.00000000E+00
  0.00000000E+00  0.00000000E+00  0.00000000E+00
  0.00000000E+00  0.00000000E+00  0.00000000E+00
  0.00000000E+00  0.00000000E+00  0.00000000E+00
  0.00000000E+00  0.00000000E+00  0.00000000E+00
  0.00000000E+00  0.00000000E+00  0.00000000E+00
  0.00000000E+00  0.00000000E+00  0.00000000E+00
