Cs16 Te1 Pb16 I48                       
   1.0000000000000000     
    17.7788800000000009    0.0000000000000000    0.0000000000000000
     0.0000000000000000   17.9504599999999996    0.0000000000000000
     0.0000000000000000    0.0000000000000000   12.7661599999999993
   Cs   Te   Pb   I 
    16     1    16    48
Direct
  0.2602435961534515  0.2144806846510971  0.2428957732288503
  0.2468356057065764  0.7260941658688971  0.2408156403186080
  0.7503389005555555  0.2218032430394231  0.2532232316539911
  0.7632343580863754  0.7160627772417928  0.2523903721850747
  0.0082141472957899  0.0299507156559180  0.7513126236441274
  0.0090703555840586  0.5348507703496664  0.7529055868020580
  0.5067378987295600  0.0326879133633704  0.7537441169704957
  0.5001191032825165  0.5276179371496387  0.7918639429223534
  0.2364446463161766  0.2826832513750216  0.7491441740944685
  0.2478786836672514  0.7772002616097808  0.7488960074585712
  0.7515384925724761  0.2721661658585118  0.7599454671778886
  0.7385700812590122  0.7854913486209543  0.7580930835170188
  0.5005286186271716  0.4740278184546262  0.2059233294314321
  0.4925379607504448  0.9654928726223598  0.2469112346808383
  0.9896543622811338  0.4641195831046017  0.2497313196990796
  0.9902638879001000  0.9690726314295544  0.2505465883580580
  0.4992094360716011  0.4990585089155847  0.4993150867723360
  0.0013654082068967  0.2477827584893270  0.0028717291950659
  0.9975543043089264  0.7511942113533510  0.9991652422030691
  0.4968971853383605  0.2477156092279240 -0.0009168478083990
  0.5021622912591744  0.7516945451187756  0.0020063017165816
  0.2492155248645155  0.9984954130745844  0.9989206138375682
  0.2442076752157136  0.5005991558768458  0.9994187738819721
  0.7499276094015572  0.0008152414564860  0.0027427360236727
  0.7548359227433834  0.4981683176209760  0.0014234832551032
  0.0001868433607603  0.2471451139010014  0.4993264306503695
 -0.0012631512159332  0.7517001825628368  0.5029751193091911
  0.4905176661627592  0.2455684739621516  0.4991487397467396
  0.5076932366912514  0.7532859939527820  0.5014040282709551
  0.2495277606034920  0.9965428426012635  0.4997717995506819
  0.2418141097148653  0.4950491060683310  0.4988950665423525
  0.7492390733963713  0.0024893359170976  0.5013993012727910
  0.7567941352951597  0.5034889896912749  0.5026401043645518
  0.1490079018870211  0.1454481608590143  0.5380424407003500
  0.1471629702075371  0.6489391175395990  0.5381567038263904
  0.6455603956536483  0.1503566147149428  0.5399134262436799
  0.6623533788407420  0.6579579506733717  0.5338828548569748
  0.3502332978153661  0.3543155856538871  0.0325323438084641
  0.3536827839523526  0.8525909852364481  0.0376761579801460
  0.8524168439882681  0.3480573033177242  0.0418829635858460
  0.8480302458435987  0.8509584368301983  0.0387450220568881
  0.1508821527430591  0.1480946966133381  0.9624970589819511
  0.1463156062583512  0.6507858019657664  0.9600435611216489
  0.6457401230650199  0.1470170746439345  0.9656863614552508
  0.6488837381890458  0.6449473397387574  0.9682515230943108
  0.3351451655362412  0.3399548246604266  0.4697604019283525
  0.3528239241919360  0.8484769989523095  0.4598556770812689
  0.8514557062264567  0.3496069710987459  0.4637781388736524
  0.8495548413654469  0.8531566731238946  0.4645558923159319
  0.2118701649839803  0.9992019948514692  0.2496919417414016
  0.2078936001276581  0.5068684737630620  0.2496837652868619
  0.7117382703795331  0.0058262226437423  0.2518524826083525
  0.7189680871676332  0.5003023948964320  0.2519281760126660
  0.0409355221455406  0.2514737824542141  0.2512217994473668
  0.0294468466270014  0.7544773370623575  0.2509767389802778
  0.5292454958859238  0.2573625111390689  0.2508110883767953
  0.5422622753644654  0.7527401712943814  0.2507146008757121
  0.3983303446563411  0.0996292361882655  0.0395937606281870
  0.3887563593479080  0.6107215176901082  0.0364459606010326
  0.8988347540543511  0.1010396448707188  0.0397260145827040
  0.9011786428004447  0.5994919031331452  0.0390970561415953
  0.4011685467780282  0.0960910913124167  0.4592002718561719
  0.3840891230134933  0.6148923942210371  0.4535112160062754
  0.8979710752051888  0.1013333564207372  0.4611654007448554
  0.9037920201569684  0.5979278515706603  0.4627186744685290
  0.0946208746917129  0.4014011527646680  0.5395789552113288
  0.1007994336651938  0.8977986740663986  0.5406158659905436
  0.6146189900225062  0.3839006988078123  0.5462089544682445
  0.5977354968658456  0.9027270337277868  0.5400169859694769
  0.0980403789993403  0.3992092125750390  0.9623685525276887
  0.1005398736679979  0.8977597589189779  0.9618389015128442
  0.6097038721832595  0.3891208356981631  0.9621594983261814
  0.6006648765175714  0.8999351782950604  0.9623135303291486
  0.4572883471918775  0.2450436855145569  0.7501563439155270
  0.4691618648536758  0.7439720965729287  0.7501149011104571
  0.9690863193863954  0.2445876494366765  0.7511256501234626
  0.9579355952500865  0.7476003136443392  0.7508927546177243
  0.2806815042693037  0.4988417261918314  0.7492054094417850
  0.2875821922619565  0.9928475329615626  0.7494783822251555
  0.7911520819290178  0.4911826934209972  0.7516355056753413
  0.7862123959352587  0.0010284214327093  0.7516631536804622

  0.00000000E+00  0.00000000E+00  0.00000000E+00
  0.00000000E+00  0.00000000E+00  0.00000000E+00
  0.00000000E+00  0.00000000E+00  0.00000000E+00
  0.00000000E+00  0.00000000E+00  0.00000000E+00
  0.00000000E+00  0.00000000E+00  0.00000000E+00
  0.00000000E+00  0.00000000E+00  0.00000000E+00
  0.00000000E+00  0.00000000E+00  0.00000000E+00
  0.00000000E+00  0.00000000E+00  0.00000000E+00
  0.00000000E+00  0.00000000E+00  0.00000000E+00
  0.00000000E+00  0.00000000E+00  0.00000000E+00
  0.00000000E+00  0.00000000E+00  0.00000000E+00
  0.00000000E+00  0.00000000E+00  0.00000000E+00
  0.00000000E+00  0.00000000E+00  0.00000000E+00
  0.00000000E+00  0.00000000E+00  0.00000000E+00
  0.00000000E+00  0.00000000E+00  0.00000000E+00
  0.00000000E+00  0.00000000E+00  0.00000000E+00
  0.00000000E+00  0.00000000E+00  0.00000000E+00
  0.00000000E+00  0.00000000E+00  0.00000000E+00
  0.00000000E+00  0.00000000E+00  0.00000000E+00
  0.00000000E+00  0.00000000E+00  0.00000000E+00
  0.00000000E+00  0.00000000E+00  0.00000000E+00
  0.00000000E+00  0.00000000E+00  0.00000000E+00
  0.00000000E+00  0.00000000E+00  0.00000000E+00
  0.00000000E+00  0.00000000E+00  0.00000000E+00
  0.00000000E+00  0.00000000E+00  0.00000000E+00
  0.00000000E+00  0.00000000E+00  0.00000000E+00
  0.00000000E+00  0.00000000E+00  0.00000000E+00
  0.00000000E+00  0.00000000E+00  0.00000000E+00
  0.00000000E+00  0.00000000E+00  0.00000000E+00
  0.00000000E+00  0.00000000E+00  0.00000000E+00
  0.00000000E+00  0.00000000E+00  0.00000000E+00
  0.00000000E+00  0.00000000E+00  0.00000000E+00
  0.00000000E+00  0.00000000E+00  0.00000000E+00
  0.00000000E+00  0.00000000E+00  0.00000000E+00
  0.00000000E+00  0.00000000E+00  0.00000000E+00
  0.00000000E+00  0.00000000E+00  0.00000000E+00
  0.00000000E+00  0.00000000E+00  0.00000000E+00
  0.00000000E+00  0.00000000E+00  0.00000000E+00
  0.00000000E+00  0.00000000E+00  0.00000000E+00
  0.00000000E+00  0.00000000E+00  0.00000000E+00
  0.00000000E+00  0.00000000E+00  0.00000000E+00
  0.00000000E+00  0.00000000E+00  0.00000000E+00
  0.00000000E+00  0.00000000E+00  0.00000000E+00
  0.00000000E+00  0.00000000E+00  0.00000000E+00
  0.00000000E+00  0.00000000E+00  0.00000000E+00
  0.00000000E+00  0.00000000E+00  0.00000000E+00
  0.00000000E+00  0.00000000E+00  0.00000000E+00
  0.00000000E+00  0.00000000E+00  0.00000000E+00
  0.00000000E+00  0.00000000E+00  0.00000000E+00
  0.00000000E+00  0.00000000E+00  0.00000000E+00
  0.00000000E+00  0.00000000E+00  0.00000000E+00
  0.00000000E+00  0.00000000E+00  0.00000000E+00
  0.00000000E+00  0.00000000E+00  0.00000000E+00
  0.00000000E+00  0.00000000E+00  0.00000000E+00
  0.00000000E+00  0.00000000E+00  0.00000000E+00
  0.00000000E+00  0.00000000E+00  0.00000000E+00
  0.00000000E+00  0.00000000E+00  0.00000000E+00
  0.00000000E+00  0.00000000E+00  0.00000000E+00
  0.00000000E+00  0.00000000E+00  0.00000000E+00
  0.00000000E+00  0.00000000E+00  0.00000000E+00
  0.00000000E+00  0.00000000E+00  0.00000000E+00
  0.00000000E+00  0.00000000E+00  0.00000000E+00
  0.00000000E+00  0.00000000E+00  0.00000000E+00
  0.00000000E+00  0.00000000E+00  0.00000000E+00
  0.00000000E+00  0.00000000E+00  0.00000000E+00
  0.00000000E+00  0.00000000E+00  0.00000000E+00
  0.00000000E+00  0.00000000E+00  0.00000000E+00
  0.00000000E+00  0.00000000E+00  0.00000000E+00
  0.00000000E+00  0.00000000E+00  0.00000000E+00
  0.00000000E+00  0.00000000E+00  0.00000000E+00
  0.00000000E+00  0.00000000E+00  0.00000000E+00
  0.00000000E+00  0.00000000E+00  0.00000000E+00
  0.00000000E+00  0.00000000E+00  0.00000000E+00
  0.00000000E+00  0.00000000E+00  0.00000000E+00
  0.00000000E+00  0.00000000E+00  0.00000000E+00
  0.00000000E+00  0.00000000E+00  0.00000000E+00
  0.00000000E+00  0.00000000E+00  0.00000000E+00
  0.00000000E+00  0.00000000E+00  0.00000000E+00
  0.00000000E+00  0.00000000E+00  0.00000000E+00
  0.00000000E+00  0.00000000E+00  0.00000000E+00
  0.00000000E+00  0.00000000E+00  0.00000000E+00
