Cs16 Pb16 S1 I48                        
   1.0000000000000000     
    17.7788800000000009    0.0000000000000000    0.0000000000000000
     0.0000000000000000   17.9504599999999996    0.0000000000000000
     0.0000000000000000    0.0000000000000000   12.7661599999999993
   Cs   Pb   S    I 
    16    16     1    48
Direct
  0.2524568261894756  0.2163801425975450  0.2200557298579075
  0.2533037333604165  0.7244442495506598  0.2482589124845576
  0.7568345542726866  0.2225117360133784  0.2568540654545351
  0.7618802441467203  0.7158150184363300  0.2508636811797609
  0.0088718045312850  0.0325548757375285  0.7507342972315676
  0.0166863346974579  0.5349605253144786  0.7462980924599524
  0.5110888750682483  0.0340286516901936  0.7549767533051320
  0.4930175021261821  0.5191129492289090  0.7286610077988340
  0.2369586971646556  0.2859550365101117  0.7674137547762137
  0.2461547611266068  0.7809504461063612  0.7520101271022227
  0.7452584828135969  0.2845435595506488  0.7535016321620744
  0.7396702014398728  0.7823014174201857  0.7472955133658756
  0.4963586478609313  0.4730077352733348  0.2478469530680888
  0.4938951622278954  0.9674672810019859  0.2412749831797255
  0.9903688153446073  0.4686074824043678  0.2534632929010567
  0.9934955428141903  0.9711868542311903  0.2515062267501131
 -0.0021132928516246  0.2515392450708024  0.0011942705522668
  0.9982153297301442  0.7519657905038045  0.0012874205308557
  0.5020154871585950  0.2528666707249911 -0.0020995577585394
  0.5030517323573440  0.7487102779538400  0.0000391460314185
  0.2516076299763763  0.9983966558378805 -0.0008708979342270
  0.2481676403938979  0.5047474482298298  0.0055562455788345
  0.7504763422722630  0.0013745555524159  0.0016549298115879
  0.7512744215803617  0.5016040892275797  0.9985152197356090
  0.0052672148613554  0.2504245247379760  0.5014830213440197
  0.0011204817234229  0.7537591759290339  0.5031727797709682
  0.5043548851146389  0.2415988437448088  0.5005810561078224
  0.5042718559552088  0.7543847652361426  0.5006991800842128
  0.2542128199271428  0.9996453387168269  0.5015058840068060
  0.2556576365601331  0.5049141589482700  0.4991589611453258
  0.7531295241456220  0.0002970700040410  0.5007532336764419
  0.7530021291466805  0.4998429129385745  0.5026245802161831
  0.3834074010321222  0.4278414610166643  0.4778663483505837
  0.1533337765443056  0.1488887339556896  0.5434044529013214
  0.1472297494077482  0.6584256217063450  0.5382786314834220
  0.6546016514391487  0.1516358332832392  0.5439479896159686
  0.6489769304999493  0.6465381544108783  0.5373520371038016
  0.3525158487259274  0.3566485446818105  0.0347031378167793
  0.3531711771611462  0.8515962568628515  0.0368674919156826
  0.8490068784327800  0.3496832545983986  0.0393866638355164
  0.8501828128513544  0.8538287658870234  0.0427826718299296
  0.1462975143015054  0.1459370935484926  0.9621070645731258
  0.1489927485487786  0.6537968977290871  0.9666054451722871
  0.6498954484541605  0.1516351349545935  0.9625356587311553
  0.6541487263432403  0.6517089676793085  0.9665816577973728
  0.3261553464682734  0.2907393143078848  0.4839842274918543
  0.3501485637184348  0.8491822521086969  0.4640578280645765
  0.8563802868917217  0.3524931909441643  0.4649569305071112
  0.8484984563058523  0.8529165789557958  0.4608090607181236
  0.2167416003997549  0.0030116388577972  0.2509729304248309
  0.2105392126098154  0.5086295577145946  0.2519006163604514
  0.7123337405701692  0.0086721764086664  0.2515276738152989
  0.7184322908808197  0.5006516939084674  0.2503832428166224
  0.0369918224962802  0.2532518688960695  0.2510948731466322
  0.0333403896170423  0.7563683519020720  0.2513752825200464
  0.5339272506630255  0.2551292140233170  0.2526139654633855
  0.5421872049557844  0.7555432879480024  0.2506291369111978
  0.3995987103283267  0.1034782050455071  0.0350820862760232
  0.3979736950885051  0.6041363670888664  0.0409869500401950
  0.8992912230650361  0.1022427740678914  0.0397262078456654
  0.9014456847197612  0.6009500470303577  0.0388206530699881
  0.4165389932227624  0.0853934051597528  0.4730745086478079
  0.4001944560172750  0.6118861956384966  0.4560095578542066
  0.9023164764148114  0.1025365796416597  0.4648015459821049
  0.9010720700826148  0.6042068520866858  0.4637387295280166
  0.1081059746886204  0.3971631952515159  0.5354977079392377
  0.1019123849383569  0.9034790667988301  0.5376341061339988
  0.6077576351632327  0.3940414561046554  0.5355772611266604
  0.6037577261020101  0.9026256923485229  0.5426916598561883
  0.0989856653695310  0.4014586879411836  0.9692822641557564
  0.1016592078798655  0.8993982665445708  0.9625975966944500
  0.6002840252485341  0.4027014383415260  0.9566950312360359
  0.6017681623896448  0.8995153566791575  0.9617923565402624
  0.4631054656358203  0.2493721696921057  0.7526272938270352
  0.4666289992615757  0.7404873394416676  0.7507381760002506
  0.9658447688580217  0.2483763068318155  0.7515591999752100
  0.9604961036971656  0.7492977906966264  0.7517223538245621
  0.2734041585758843  0.5051692826305630  0.7540012464003656
  0.2905284775775945  0.9946757619471541  0.7513555504501317
  0.7947071586065053  0.4974655194643022  0.7508088536062758
  0.7888239442795377 -0.0031140887665190  0.7520065685735899

  0.00000000E+00  0.00000000E+00  0.00000000E+00
  0.00000000E+00  0.00000000E+00  0.00000000E+00
  0.00000000E+00  0.00000000E+00  0.00000000E+00
  0.00000000E+00  0.00000000E+00  0.00000000E+00
  0.00000000E+00  0.00000000E+00  0.00000000E+00
  0.00000000E+00  0.00000000E+00  0.00000000E+00
  0.00000000E+00  0.00000000E+00  0.00000000E+00
  0.00000000E+00  0.00000000E+00  0.00000000E+00
  0.00000000E+00  0.00000000E+00  0.00000000E+00
  0.00000000E+00  0.00000000E+00  0.00000000E+00
  0.00000000E+00  0.00000000E+00  0.00000000E+00
  0.00000000E+00  0.00000000E+00  0.00000000E+00
  0.00000000E+00  0.00000000E+00  0.00000000E+00
  0.00000000E+00  0.00000000E+00  0.00000000E+00
  0.00000000E+00  0.00000000E+00  0.00000000E+00
  0.00000000E+00  0.00000000E+00  0.00000000E+00
  0.00000000E+00  0.00000000E+00  0.00000000E+00
  0.00000000E+00  0.00000000E+00  0.00000000E+00
  0.00000000E+00  0.00000000E+00  0.00000000E+00
  0.00000000E+00  0.00000000E+00  0.00000000E+00
  0.00000000E+00  0.00000000E+00  0.00000000E+00
  0.00000000E+00  0.00000000E+00  0.00000000E+00
  0.00000000E+00  0.00000000E+00  0.00000000E+00
  0.00000000E+00  0.00000000E+00  0.00000000E+00
  0.00000000E+00  0.00000000E+00  0.00000000E+00
  0.00000000E+00  0.00000000E+00  0.00000000E+00
  0.00000000E+00  0.00000000E+00  0.00000000E+00
  0.00000000E+00  0.00000000E+00  0.00000000E+00
  0.00000000E+00  0.00000000E+00  0.00000000E+00
  0.00000000E+00  0.00000000E+00  0.00000000E+00
  0.00000000E+00  0.00000000E+00  0.00000000E+00
  0.00000000E+00  0.00000000E+00  0.00000000E+00
  0.00000000E+00  0.00000000E+00  0.00000000E+00
  0.00000000E+00  0.00000000E+00  0.00000000E+00
  0.00000000E+00  0.00000000E+00  0.00000000E+00
  0.00000000E+00  0.00000000E+00  0.00000000E+00
  0.00000000E+00  0.00000000E+00  0.00000000E+00
  0.00000000E+00  0.00000000E+00  0.00000000E+00
  0.00000000E+00  0.00000000E+00  0.00000000E+00
  0.00000000E+00  0.00000000E+00  0.00000000E+00
  0.00000000E+00  0.00000000E+00  0.00000000E+00
  0.00000000E+00  0.00000000E+00  0.00000000E+00
  0.00000000E+00  0.00000000E+00  0.00000000E+00
  0.00000000E+00  0.00000000E+00  0.00000000E+00
  0.00000000E+00  0.00000000E+00  0.00000000E+00
  0.00000000E+00  0.00000000E+00  0.00000000E+00
  0.00000000E+00  0.00000000E+00  0.00000000E+00
  0.00000000E+00  0.00000000E+00  0.00000000E+00
  0.00000000E+00  0.00000000E+00  0.00000000E+00
  0.00000000E+00  0.00000000E+00  0.00000000E+00
  0.00000000E+00  0.00000000E+00  0.00000000E+00
  0.00000000E+00  0.00000000E+00  0.00000000E+00
  0.00000000E+00  0.00000000E+00  0.00000000E+00
  0.00000000E+00  0.00000000E+00  0.00000000E+00
  0.00000000E+00  0.00000000E+00  0.00000000E+00
  0.00000000E+00  0.00000000E+00  0.00000000E+00
  0.00000000E+00  0.00000000E+00  0.00000000E+00
  0.00000000E+00  0.00000000E+00  0.00000000E+00
  0.00000000E+00  0.00000000E+00  0.00000000E+00
  0.00000000E+00  0.00000000E+00  0.00000000E+00
  0.00000000E+00  0.00000000E+00  0.00000000E+00
  0.00000000E+00  0.00000000E+00  0.00000000E+00
  0.00000000E+00  0.00000000E+00  0.00000000E+00
  0.00000000E+00  0.00000000E+00  0.00000000E+00
  0.00000000E+00  0.00000000E+00  0.00000000E+00
  0.00000000E+00  0.00000000E+00  0.00000000E+00
  0.00000000E+00  0.00000000E+00  0.00000000E+00
  0.00000000E+00  0.00000000E+00  0.00000000E+00
  0.00000000E+00  0.00000000E+00  0.00000000E+00
  0.00000000E+00  0.00000000E+00  0.00000000E+00
  0.00000000E+00  0.00000000E+00  0.00000000E+00
  0.00000000E+00  0.00000000E+00  0.00000000E+00
  0.00000000E+00  0.00000000E+00  0.00000000E+00
  0.00000000E+00  0.00000000E+00  0.00000000E+00
  0.00000000E+00  0.00000000E+00  0.00000000E+00
  0.00000000E+00  0.00000000E+00  0.00000000E+00
  0.00000000E+00  0.00000000E+00  0.00000000E+00
  0.00000000E+00  0.00000000E+00  0.00000000E+00
  0.00000000E+00  0.00000000E+00  0.00000000E+00
  0.00000000E+00  0.00000000E+00  0.00000000E+00
  0.00000000E+00  0.00000000E+00  0.00000000E+00
