Cs1 Pb1 Br3                             
   1.00000000000000     
    11.9929599761999999    0.0000000000000000    0.0000000000000000
     0.0000000000000000   11.9929523467999992    0.0000000000000000
     0.0000000000000000    0.0000000000000000   11.9929523467999992
   Cs   Pb   Br
     8     8    23
Direct
  0.4999999971648919  0.5001157992994443  0.5001157177143624
  0.4999999783505605  0.5001157855037747 -0.0001156597143946
  0.4999999346132112 -0.0001156707372059  0.5001156903381498
  0.4999999834952734 -0.0001157750604697 -0.0001156868209751
 -0.0000000346362673  0.4863591667375530  0.4863592941933835
  0.0000000251166749  0.4863591657000071  0.0136408707871390
 -0.0000000909804396  0.0136405081153168  0.4863595728379813
  0.0000000470179237  0.0136406095198950  0.0136405089231675
  0.2516818578909922  0.2500000090204213  0.2500000676814719
  0.2487795838286998  0.2500000601340045  0.7500000263179464
  0.2487795613794506  0.7500000330423431  0.2500000174559825
  0.2462428319122389  0.7500000355899831  0.7499999995011422
  0.7483181850517441  0.2499999724965835  0.2499999272823860
  0.7512205057251072  0.2499999556031355  0.7499999410564246
  0.7512204480960114  0.7500000020135634  0.2499999414282622
  0.7537570530045878  0.7499999400710835  0.7499999498804547
  0.2485530996278046  0.2499999763914660  0.4996338898065403
  0.2485531214887307  0.2500000477185661  0.0003661071620801
  0.2384860365700502  0.7500000419564093  0.5004703653476329
  0.2384860515702850  0.7500000523093604 -0.0004703624179987
  0.7514469231486935  0.2500000279853041  0.4996338707664596
  0.7514469008884006  0.2500000257408841  0.0003661059290377
  0.7615140693869409  0.7500000539679614  0.5004703358409539
  0.7615139329467500  0.7500001371613357 -0.0004704114768363
  0.2485530805974880  0.4996338879901293  0.2499999613675352
  0.2384859851673582  0.5004703659752620  0.7499999659463505
  0.2485530335855748  0.0003661348728740  0.2500000095199864
  0.2384859979108590 -0.0004703607926498  0.7499999727843816
  0.7514468945470224  0.4996338889551566  0.2500000280698497
  0.7615139443540420  0.5004703284854739  0.7500000141900613
  0.7514469975087432  0.0003661302586175  0.2500000426973393
  0.7615140725547852 -0.0004704326337884  0.7499999720666217
  0.4999999934749227  0.2500000168923940  0.2500000127792725
  0.5000000216215037  0.2499999765234619  0.7499999606162816
  0.5000000194308449  0.7500000104332502  0.2500000573123596
  0.4999999078902953  0.7500000808025686  0.7499999848772292
 -0.0000000053292080  0.2500000470727721  0.2499999668625034
  0.0000000293879475  0.2499999641172476  0.7499999651424987
  0.0000000246395046  0.7500000007665097  0.2500000059469751
 
  0.00000000E+00  0.00000000E+00  0.00000000E+00
  0.00000000E+00  0.00000000E+00  0.00000000E+00
  0.00000000E+00  0.00000000E+00  0.00000000E+00
  0.00000000E+00  0.00000000E+00  0.00000000E+00
  0.00000000E+00  0.00000000E+00  0.00000000E+00
  0.00000000E+00  0.00000000E+00  0.00000000E+00
  0.00000000E+00  0.00000000E+00  0.00000000E+00
  0.00000000E+00  0.00000000E+00  0.00000000E+00
  0.00000000E+00  0.00000000E+00  0.00000000E+00
  0.00000000E+00  0.00000000E+00  0.00000000E+00
  0.00000000E+00  0.00000000E+00  0.00000000E+00
  0.00000000E+00  0.00000000E+00  0.00000000E+00
  0.00000000E+00  0.00000000E+00  0.00000000E+00
  0.00000000E+00  0.00000000E+00  0.00000000E+00
  0.00000000E+00  0.00000000E+00  0.00000000E+00
  0.00000000E+00  0.00000000E+00  0.00000000E+00
  0.00000000E+00  0.00000000E+00  0.00000000E+00
  0.00000000E+00  0.00000000E+00  0.00000000E+00
  0.00000000E+00  0.00000000E+00  0.00000000E+00
  0.00000000E+00  0.00000000E+00  0.00000000E+00
  0.00000000E+00  0.00000000E+00  0.00000000E+00
  0.00000000E+00  0.00000000E+00  0.00000000E+00
  0.00000000E+00  0.00000000E+00  0.00000000E+00
  0.00000000E+00  0.00000000E+00  0.00000000E+00
  0.00000000E+00  0.00000000E+00  0.00000000E+00
  0.00000000E+00  0.00000000E+00  0.00000000E+00
  0.00000000E+00  0.00000000E+00  0.00000000E+00
  0.00000000E+00  0.00000000E+00  0.00000000E+00
  0.00000000E+00  0.00000000E+00  0.00000000E+00
  0.00000000E+00  0.00000000E+00  0.00000000E+00
  0.00000000E+00  0.00000000E+00  0.00000000E+00
  0.00000000E+00  0.00000000E+00  0.00000000E+00
  0.00000000E+00  0.00000000E+00  0.00000000E+00
  0.00000000E+00  0.00000000E+00  0.00000000E+00
  0.00000000E+00  0.00000000E+00  0.00000000E+00
  0.00000000E+00  0.00000000E+00  0.00000000E+00
  0.00000000E+00  0.00000000E+00  0.00000000E+00
  0.00000000E+00  0.00000000E+00  0.00000000E+00
  0.00000000E+00  0.00000000E+00  0.00000000E+00
