Cs1 Pb1 Br3                             
   1.00000000000000     
    11.9929599761999999    0.0000000000000000    0.0000000000000000
     0.0000000000000000   11.9929523467999992    0.0000000000000000
     0.0000000000000000    0.0000000000000000   11.9929523467999992
   Cs   Pb   Br
     9     8    24
Direct
  0.4999999999500064  0.4228774866104926  0.4999999717053895
  0.4999999753672464  0.5024028005257295 -0.0000000349847942
  0.5000000029366187  0.0771218784570420  0.5000000329084959
  0.5000000534006699 -0.0024025867541248  0.0000000207530008
 -0.0000000019520862  0.5024028437938221  0.4999999775522648
 -0.0000000000395347  0.5010036943355252 -0.0000000307843660
  0.0000000078388532 -0.0024026796886862  0.5000000564113017
  0.0000000080485588 -0.0010036914061778  0.0000000335823539
  0.4999999968886492  0.7499989522250873  0.4999999534058611
  0.2470209069724679  0.2500000521436277  0.2470209475915127
  0.2470209486342224  0.2500000633981478  0.7529790926329492
  0.2446762391583938  0.7500000322413620  0.2446764108492648
  0.2446762689839480  0.7500000377883114  0.7553237319223747
  0.7529790537340472  0.2500000632522091  0.2470209089876409
  0.7529790875529401  0.2500000859658169  0.7529790451551971
  0.7553237304885827  0.7500000377662849  0.2446762763632791
  0.7553237481757801  0.7500000470638732  0.7553235933466437
  0.2491614316155772  0.2500000668058133  0.5000000474060868
  0.2501833134202726  0.2499997088465987  0.0000000512240058
  0.2117233520215158  0.7500001940623692  0.5000001010940363
  0.2328202963755672  0.7500001768237435  0.0000000660071028
  0.7508385716719007  0.2500000650098879  0.4999999597725902
  0.7498166784620737  0.2499997057793072 -0.0000000456861986
  0.7882766432969380  0.7500002165535606  0.4999999124178121
  0.7671796951016817  0.7500002036482659 -0.0000000565260960
  0.2561428313453251  0.5004811103516003  0.2561429178952859
  0.2561428171769812  0.5004811339640916  0.7438573135649201
  0.2561431420002793 -0.0004810711736585  0.2561432326526099
  0.2561431488386279 -0.0004810633995336  0.7438568307556911
  0.7438572017307044  0.5004811300415767  0.2561427748675402
  0.7438572528393651  0.5004811399401139  0.7438571801079148
  0.7438567800467979 -0.0004810671535549  0.2561431039813233
  0.7438568198250691 -0.0004810362940141  0.7438567118899894
  0.5000000027930631  0.2500000617595718  0.2491613142073826
  0.5000000006539610  0.2500000763604368  0.7508386946157759
  0.4999999935147376  0.7500001876254208  0.2117234245247737
  0.5000000071858599  0.7500002002242773  0.7882764879099230
 -0.0000000046602039  0.2499997157618463  0.2501832805621627
  0.0000000106061008  0.2499997254562715  0.7498166947078703
 -0.0000000383091760  0.7500001454733075  0.2328206463916217
  0.0000000263076166  0.7500001558143582  0.7671793682575063
 
  0.00000000E+00  0.00000000E+00  0.00000000E+00
  0.00000000E+00  0.00000000E+00  0.00000000E+00
  0.00000000E+00  0.00000000E+00  0.00000000E+00
  0.00000000E+00  0.00000000E+00  0.00000000E+00
  0.00000000E+00  0.00000000E+00  0.00000000E+00
  0.00000000E+00  0.00000000E+00  0.00000000E+00
  0.00000000E+00  0.00000000E+00  0.00000000E+00
  0.00000000E+00  0.00000000E+00  0.00000000E+00
  0.00000000E+00  0.00000000E+00  0.00000000E+00
  0.00000000E+00  0.00000000E+00  0.00000000E+00
  0.00000000E+00  0.00000000E+00  0.00000000E+00
  0.00000000E+00  0.00000000E+00  0.00000000E+00
  0.00000000E+00  0.00000000E+00  0.00000000E+00
  0.00000000E+00  0.00000000E+00  0.00000000E+00
  0.00000000E+00  0.00000000E+00  0.00000000E+00
  0.00000000E+00  0.00000000E+00  0.00000000E+00
  0.00000000E+00  0.00000000E+00  0.00000000E+00
  0.00000000E+00  0.00000000E+00  0.00000000E+00
  0.00000000E+00  0.00000000E+00  0.00000000E+00
  0.00000000E+00  0.00000000E+00  0.00000000E+00
  0.00000000E+00  0.00000000E+00  0.00000000E+00
  0.00000000E+00  0.00000000E+00  0.00000000E+00
  0.00000000E+00  0.00000000E+00  0.00000000E+00
  0.00000000E+00  0.00000000E+00  0.00000000E+00
  0.00000000E+00  0.00000000E+00  0.00000000E+00
  0.00000000E+00  0.00000000E+00  0.00000000E+00
  0.00000000E+00  0.00000000E+00  0.00000000E+00
  0.00000000E+00  0.00000000E+00  0.00000000E+00
  0.00000000E+00  0.00000000E+00  0.00000000E+00
  0.00000000E+00  0.00000000E+00  0.00000000E+00
  0.00000000E+00  0.00000000E+00  0.00000000E+00
  0.00000000E+00  0.00000000E+00  0.00000000E+00
  0.00000000E+00  0.00000000E+00  0.00000000E+00
  0.00000000E+00  0.00000000E+00  0.00000000E+00
  0.00000000E+00  0.00000000E+00  0.00000000E+00
  0.00000000E+00  0.00000000E+00  0.00000000E+00
  0.00000000E+00  0.00000000E+00  0.00000000E+00
  0.00000000E+00  0.00000000E+00  0.00000000E+00
  0.00000000E+00  0.00000000E+00  0.00000000E+00
  0.00000000E+00  0.00000000E+00  0.00000000E+00
  0.00000000E+00  0.00000000E+00  0.00000000E+00
