Cs1 Pb1 Br3                             
   1.00000000000000     
    11.9929599761999999    0.0000000000000000    0.0000000000000000
     0.0000000000000000   11.9929523467999992    0.0000000000000000
     0.0000000000000000    0.0000000000000000   11.9929523467999992
   Cs   Pb   Br
     7     8    25
Direct
  0.5000000032514135  0.4999999957485634 -0.0000000005915996
  0.5000000117973242 -0.0000000013296964  0.5000000111280455
  0.4999999960345197 -0.0000000058338941 -0.0000000002969481
 -0.0000000052833374  0.4999999968676577  0.5000000103920009
 -0.0000000013328720  0.4999999922044968  0.0000000109214867
  0.0000000029381603  0.0000000016736823  0.4999999866138911
  0.0000000155860086 -0.0000000000906977  0.0000000331432059
  0.2523134872016269  0.2523136790606484  0.2523132192870504
  0.2523129200340308  0.2523135448093611  0.7476867664616138
  0.2523131112077685  0.7476863425200049  0.2523136746788696
  0.2523134946563908  0.7476863069193069  0.7476863874367478
  0.7476865034688044  0.2523136845862672  0.2523136207696811
  0.7476868499099734  0.2523136433328729  0.7476863032205089
  0.7476871113225281  0.7476864655751413  0.2523132253579322
  0.7476865144188223  0.7476863292621440  0.7476867811712398
  0.2394187244774179  0.2394187530913838  0.4999999963697794
  0.2495911537184654  0.2495911541237764  0.0000000282985182
  0.2394207841178520  0.7605791983666624  0.5000000277474066
  0.2495912188071298  0.7504088050320923  0.0000000786892940
  0.7605792181006802  0.2394208011922829  0.4999999596372764
  0.7504087909574797  0.2495912098020905 -0.0000000784510140
  0.7605812772669087  0.7605812549241495  0.5000000013683200
  0.7504088478992660  0.7504088563056684 -0.0000000328950598
  0.2394198350301522  0.5000000854298396  0.2394198520334404
  0.2394187745059056  0.5000000875664750  0.7605811659576399
  0.2495912720405057 -0.0000001757391683  0.2495912626054706
  0.2495912800408219 -0.0000001760667130  0.7504086956458882
  0.7605812128956188  0.4999999128813767  0.2394188403527131
  0.7605801683485199  0.4999999177403813  0.7605801428743310
  0.7504087207086867  0.0000001770796432  0.2495913006122737
  0.7504087117903803  0.0000001722742294  0.7504087448319877
  0.5000001156801497  0.2394197162622103  0.2394197229483070
  0.5000000749264361  0.2394197021540156  0.7605802694431328
  0.4999999298853724  0.7605803056237357  0.2394197338209087
  0.4999998905828000  0.7605802788773012  0.7605802692811592
 -0.0000000958820616  0.2495912259918390  0.2495912104135029
 -0.0000002508627170  0.2495912504079160  0.7504087111273410
  0.0000002430427283  0.7504087400482695  0.2495912834966724
  0.0000000903949930  0.7504087707241678  0.7504087904392107
  0.4999999963153461  0.5000000006005159  0.4999999936577746
 
  0.00000000E+00  0.00000000E+00  0.00000000E+00
  0.00000000E+00  0.00000000E+00  0.00000000E+00
  0.00000000E+00  0.00000000E+00  0.00000000E+00
  0.00000000E+00  0.00000000E+00  0.00000000E+00
  0.00000000E+00  0.00000000E+00  0.00000000E+00
  0.00000000E+00  0.00000000E+00  0.00000000E+00
  0.00000000E+00  0.00000000E+00  0.00000000E+00
  0.00000000E+00  0.00000000E+00  0.00000000E+00
  0.00000000E+00  0.00000000E+00  0.00000000E+00
  0.00000000E+00  0.00000000E+00  0.00000000E+00
  0.00000000E+00  0.00000000E+00  0.00000000E+00
  0.00000000E+00  0.00000000E+00  0.00000000E+00
  0.00000000E+00  0.00000000E+00  0.00000000E+00
  0.00000000E+00  0.00000000E+00  0.00000000E+00
  0.00000000E+00  0.00000000E+00  0.00000000E+00
  0.00000000E+00  0.00000000E+00  0.00000000E+00
  0.00000000E+00  0.00000000E+00  0.00000000E+00
  0.00000000E+00  0.00000000E+00  0.00000000E+00
  0.00000000E+00  0.00000000E+00  0.00000000E+00
  0.00000000E+00  0.00000000E+00  0.00000000E+00
  0.00000000E+00  0.00000000E+00  0.00000000E+00
  0.00000000E+00  0.00000000E+00  0.00000000E+00
  0.00000000E+00  0.00000000E+00  0.00000000E+00
  0.00000000E+00  0.00000000E+00  0.00000000E+00
  0.00000000E+00  0.00000000E+00  0.00000000E+00
  0.00000000E+00  0.00000000E+00  0.00000000E+00
  0.00000000E+00  0.00000000E+00  0.00000000E+00
  0.00000000E+00  0.00000000E+00  0.00000000E+00
  0.00000000E+00  0.00000000E+00  0.00000000E+00
  0.00000000E+00  0.00000000E+00  0.00000000E+00
  0.00000000E+00  0.00000000E+00  0.00000000E+00
  0.00000000E+00  0.00000000E+00  0.00000000E+00
  0.00000000E+00  0.00000000E+00  0.00000000E+00
  0.00000000E+00  0.00000000E+00  0.00000000E+00
  0.00000000E+00  0.00000000E+00  0.00000000E+00
  0.00000000E+00  0.00000000E+00  0.00000000E+00
  0.00000000E+00  0.00000000E+00  0.00000000E+00
  0.00000000E+00  0.00000000E+00  0.00000000E+00
  0.00000000E+00  0.00000000E+00  0.00000000E+00
  0.00000000E+00  0.00000000E+00  0.00000000E+00
