Cs1 Pb1 Br3                             
   1.00000000000000     
    11.9929599761999999    0.0000000000000000    0.0000000000000000
     0.0000000000000000   11.9929523467999992    0.0000000000000000
     0.0000000000000000    0.0000000000000000   11.9929523467999992
   Cs   Pb   Br
     9     8    23
Direct
  0.9994176332119267  0.7543891489504873  0.7568006454982665
  0.5014611417841550  0.4776604570750393  0.4761994066912933
  0.5030309845852230  0.4791423193295401  0.0236298624310152
  0.5031422944618242  0.0225181898780633  0.4760653159599144
  0.5065364968880246  0.0217482033242078  0.0235405562660631
  0.0000479928876018  0.4807256966000608  0.4776834545246729
  0.9996831845496246  0.4790468439182476  0.0254531674146463
  0.9997996668817208  0.0218566332074559  0.4737046428714393
  0.0004552804152240  0.0263462919183226  0.0171784267419284
  0.2517061829804135  0.2510237399943591  0.2499210342056273
  0.2463694723740701  0.2509390189710103  0.7505628989465549
  0.2457281555572592  0.7510595283500905  0.2493354121370714
  0.2683528399302588  0.7504707623034861  0.7490569981314152
  0.7508738421110053  0.2500319099524546  0.2499312898316717
  0.7549862327415724  0.2494007661872928  0.7496745948316601
  0.7539826838176538  0.7495120906232842  0.2488820646508216
  0.7299965692072377  0.7478525368871516  0.7472911875537704
  0.2532305914123825  0.2496594618069494  0.5001077185227771
  0.2591328178788217  0.2561023708088328  0.0000610870227149
  0.2081041128224683  0.7524949629787656  0.5048418330885198
  0.2080389915538063  0.7509873440734509  0.9949824087948684
  0.7481907391818439  0.2505219318813943  0.4997031708597319
  0.7477396075915976  0.2497509319689186  0.9998695877754216
  0.7915657982489748  0.7499630850569261  0.5049570269835968
  0.7863752944415481  0.7479485775238999  0.9956563928926343
  0.2550118456680508  0.5009708337597445  0.2511303660537507
  0.2070689721962040  0.5053571302360425  0.7491464682426852
  0.2541029298924329  0.0008922296643661  0.2489508953363142
  0.2071209771085165  0.9950394212240354  0.7533513494687014
  0.7457798694788167  0.4996721524024608  0.2508315275951034
  0.7928005883988476  0.5047672954435711  0.7487360102861942
  0.7471986670675008  0.9997536129024951  0.2493202605827776
  0.7894084963985648  0.9946611790083963  0.7501853214249223
  0.5012469411985165  0.2504161026352492  0.2509172142512881
  0.5009927663130540  0.2509091404064208  0.7487625225477643
  0.5000140983020955  0.7502140906603074  0.2516974015035132
  0.4993674808621904  0.7496594656379614  0.7482607241903168
  0.0012680487044250  0.2511710970299390  0.2495393340155516
  0.0007797309512938  0.2486397367213584  0.7553785863498064
  0.9998899799432550  0.7467237086979637  0.2487018335231994
 
  0.00000000E+00  0.00000000E+00  0.00000000E+00
  0.00000000E+00  0.00000000E+00  0.00000000E+00
  0.00000000E+00  0.00000000E+00  0.00000000E+00
  0.00000000E+00  0.00000000E+00  0.00000000E+00
  0.00000000E+00  0.00000000E+00  0.00000000E+00
  0.00000000E+00  0.00000000E+00  0.00000000E+00
  0.00000000E+00  0.00000000E+00  0.00000000E+00
  0.00000000E+00  0.00000000E+00  0.00000000E+00
  0.00000000E+00  0.00000000E+00  0.00000000E+00
  0.00000000E+00  0.00000000E+00  0.00000000E+00
  0.00000000E+00  0.00000000E+00  0.00000000E+00
  0.00000000E+00  0.00000000E+00  0.00000000E+00
  0.00000000E+00  0.00000000E+00  0.00000000E+00
  0.00000000E+00  0.00000000E+00  0.00000000E+00
  0.00000000E+00  0.00000000E+00  0.00000000E+00
  0.00000000E+00  0.00000000E+00  0.00000000E+00
  0.00000000E+00  0.00000000E+00  0.00000000E+00
  0.00000000E+00  0.00000000E+00  0.00000000E+00
  0.00000000E+00  0.00000000E+00  0.00000000E+00
  0.00000000E+00  0.00000000E+00  0.00000000E+00
  0.00000000E+00  0.00000000E+00  0.00000000E+00
  0.00000000E+00  0.00000000E+00  0.00000000E+00
  0.00000000E+00  0.00000000E+00  0.00000000E+00
  0.00000000E+00  0.00000000E+00  0.00000000E+00
  0.00000000E+00  0.00000000E+00  0.00000000E+00
  0.00000000E+00  0.00000000E+00  0.00000000E+00
  0.00000000E+00  0.00000000E+00  0.00000000E+00
  0.00000000E+00  0.00000000E+00  0.00000000E+00
  0.00000000E+00  0.00000000E+00  0.00000000E+00
  0.00000000E+00  0.00000000E+00  0.00000000E+00
  0.00000000E+00  0.00000000E+00  0.00000000E+00
  0.00000000E+00  0.00000000E+00  0.00000000E+00
  0.00000000E+00  0.00000000E+00  0.00000000E+00
  0.00000000E+00  0.00000000E+00  0.00000000E+00
  0.00000000E+00  0.00000000E+00  0.00000000E+00
  0.00000000E+00  0.00000000E+00  0.00000000E+00
  0.00000000E+00  0.00000000E+00  0.00000000E+00
  0.00000000E+00  0.00000000E+00  0.00000000E+00
  0.00000000E+00  0.00000000E+00  0.00000000E+00
  0.00000000E+00  0.00000000E+00  0.00000000E+00
