Cs1 Pb1 Br3                             
   1.00000000000000     
    11.9929599761999999    0.0000000000000000    0.0000000000000000
     0.0000000000000000   11.9929523467999992    0.0000000000000000
     0.0000000000000000    0.0000000000000000   11.9929523467999992
   Cs   Pb   Br
     7     8    24
Direct
  0.5000000136481710  0.5000000231696887  0.0000000510226660
  0.5000000153247783  0.0000000405645325  0.4999999652852181
  0.4999999545833467 -0.0000000263019333  0.0000000062624592
 -0.0000000335967697  0.4999999877241950  0.5000000254461910
  0.0000000097591630  0.5000000403974153 -0.0000000436312760
  0.0000000242167971 -0.0000000123010140  0.4999999649443981
 -0.0000000092503265 -0.0000000597788337  0.0000000318882518
  0.2518522705634800  0.2518521211870811  0.2518521564954643
  0.2518522599967466  0.2518521001633615  0.7481478075777582
  0.2518522525271916  0.7481478593603055  0.2518522374321323
  0.2518522676686363  0.7481479592786061  0.7481477959855912
  0.7481477338772087  0.2518521366596017  0.2518521584826852
  0.7481477564106602  0.2518521920414823  0.7481477891486892
  0.7481477671955260  0.7481478070178625  0.2518521447675198
  0.7481477241425367  0.7481478459971911  0.7481478464112389
  0.2417366520583964  0.2417366833104453  0.4999998914195045
  0.2495177503396084  0.2495177637747941 -0.0000000171062472
  0.2417366615493295  0.7582632997865489  0.4999999619525199
  0.2495177566663337  0.7504822224052419  0.0000000095841449
  0.7582633386956840  0.2417366984194095  0.5000000078614748
  0.7504822364488993  0.2495177617099529  0.0000000025318836
  0.7582633521851989  0.7582633294803683  0.5000000528002077
  0.7504822333854688  0.7504822399406610  0.0000000408942776
  0.2417366211580049  0.5000000078695932  0.2417366397408006
  0.2417366339549168  0.5000000011232324  0.7582632931981083
  0.2495177114792375  0.0000000185776054  0.2495177307060009
  0.2495177335873708 -0.0000000011854005  0.7504822672030244
  0.7582633723531027  0.4999999942915819  0.2417367147698131
  0.7582633647086033  0.5000000149652626  0.7582633710264352
  0.7504822758951509 -0.0000000073779717  0.2495177661793248
  0.7504822806466912 -0.0000000135418977  0.7504822968062910
  0.4999999958201305  0.2417366333562785  0.2417366263280711
  0.5000000035630935  0.2417366314562417  0.7582633367418100
  0.4999999936316622  0.7582633525295095  0.2417366779951985
  0.5000000202655639  0.7582633427015221  0.7582633901250385
  0.0000000063779955  0.2495177685840926  0.2495177561239018
 -0.0000000038290238  0.2495177689812261  0.7504822100573586
  0.0000000155178400  0.7504822464047494  0.2495177796598159
 -0.0000000135264051  0.7504822272574109  0.7504822558822538
 
  0.00000000E+00  0.00000000E+00  0.00000000E+00
  0.00000000E+00  0.00000000E+00  0.00000000E+00
  0.00000000E+00  0.00000000E+00  0.00000000E+00
  0.00000000E+00  0.00000000E+00  0.00000000E+00
  0.00000000E+00  0.00000000E+00  0.00000000E+00
  0.00000000E+00  0.00000000E+00  0.00000000E+00
  0.00000000E+00  0.00000000E+00  0.00000000E+00
  0.00000000E+00  0.00000000E+00  0.00000000E+00
  0.00000000E+00  0.00000000E+00  0.00000000E+00
  0.00000000E+00  0.00000000E+00  0.00000000E+00
  0.00000000E+00  0.00000000E+00  0.00000000E+00
  0.00000000E+00  0.00000000E+00  0.00000000E+00
  0.00000000E+00  0.00000000E+00  0.00000000E+00
  0.00000000E+00  0.00000000E+00  0.00000000E+00
  0.00000000E+00  0.00000000E+00  0.00000000E+00
  0.00000000E+00  0.00000000E+00  0.00000000E+00
  0.00000000E+00  0.00000000E+00  0.00000000E+00
  0.00000000E+00  0.00000000E+00  0.00000000E+00
  0.00000000E+00  0.00000000E+00  0.00000000E+00
  0.00000000E+00  0.00000000E+00  0.00000000E+00
  0.00000000E+00  0.00000000E+00  0.00000000E+00
  0.00000000E+00  0.00000000E+00  0.00000000E+00
  0.00000000E+00  0.00000000E+00  0.00000000E+00
  0.00000000E+00  0.00000000E+00  0.00000000E+00
  0.00000000E+00  0.00000000E+00  0.00000000E+00
  0.00000000E+00  0.00000000E+00  0.00000000E+00
  0.00000000E+00  0.00000000E+00  0.00000000E+00
  0.00000000E+00  0.00000000E+00  0.00000000E+00
  0.00000000E+00  0.00000000E+00  0.00000000E+00
  0.00000000E+00  0.00000000E+00  0.00000000E+00
  0.00000000E+00  0.00000000E+00  0.00000000E+00
  0.00000000E+00  0.00000000E+00  0.00000000E+00
  0.00000000E+00  0.00000000E+00  0.00000000E+00
  0.00000000E+00  0.00000000E+00  0.00000000E+00
  0.00000000E+00  0.00000000E+00  0.00000000E+00
  0.00000000E+00  0.00000000E+00  0.00000000E+00
  0.00000000E+00  0.00000000E+00  0.00000000E+00
  0.00000000E+00  0.00000000E+00  0.00000000E+00
  0.00000000E+00  0.00000000E+00  0.00000000E+00
