Cs1 Pb1 Br3                             
   1.00000000000000     
    11.9929599761999999    0.0000000000000000    0.0000000000000000
     0.0000000000000000   11.9929523467999992    0.0000000000000000
     0.0000000000000000    0.0000000000000000   11.9929523467999992
   Cs   Pb   Br
     8     9    23
Direct
  0.5159507279971520  0.5159526715134398  0.5000000302498347
  0.5017085267411689  0.5017088256483575 -0.0000000039158389
  0.5159461144631657 -0.0159478267042659  0.5000000015810112
  0.5017083050573296 -0.0017085460495790  0.0000000005948366
 -0.0159465191378902  0.5159481211805361  0.5000000021443661
 -0.0017082762096646  0.5017084986150649  0.0000000040695716
 -0.0159505505108912 -0.0159524866708472  0.4999999779477547
 -0.0017085100596890 -0.0017088119296959 -0.0000000037318237
  0.2499999645165499  0.2500000171651174  0.2447364823447409
  0.2499999589270020  0.2500000635907499  0.7552635608023927
  0.2499999973161099  0.7499999526282399  0.2496368425969334
  0.2499999960415337  0.7499999495610841  0.7503628423415376
  0.7500000239041283  0.2500000056830129  0.2496379352363928
  0.7500000362657734  0.2500000056288862  0.7503620590326906
  0.7499999848344043  0.7499999777639957  0.2481268707065265
  0.7499999994455013  0.7499999725347102  0.7518731877239808
  0.2499999667085059  0.2500000654818478  0.4999999752863163
  0.2500000439472855  0.2500000094308900  0.0000000001644025
  0.2500000374219131  0.7499999937611106  0.5000000098544536
  0.2500000136218356  0.7499999871762097  0.0000000082672431
  0.7499999564847843  0.2499999707859034  0.5000000187157755
  0.7499999799130813  0.2499999744814289  0.0000000163825239
  0.7500000146838940  0.7499999464189765  0.5000000118305357
  0.7499999976731120  0.7499999842627959  0.0000000089304215
  0.2500006406090913  0.5021236335896828  0.2575750353169783
  0.2500006294103819  0.5021236361725568  0.7424251202890096
  0.2499994624644619 -0.0021236851128765  0.2575749250133860
  0.2499994189274314 -0.0021236597578019  0.7424249886505929
  0.7500000248346768  0.5011501621489207  0.2502902542559589
  0.7500000288350590  0.5011501641059699  0.7497097364574680
  0.7499999529053119 -0.0011502041214001  0.2502902269891961
  0.7499999708795824 -0.0011502085598977  0.7497097691283192
  0.5021209703563717  0.2500006670593830  0.2575815454784036
  0.5021209718110821  0.2500006591752938  0.7424186338906069
  0.5011508002950376  0.7500000278988566  0.2502903136306586
  0.5011507804952358  0.7500000515520145  0.7497096777576483
 -0.0021209449848977  0.2499992795285048  0.2575813099280956
 -0.0021209514129608  0.2499992949763088  0.7424185910273050
 -0.0011507663824611  0.7499999291805225  0.2502903477427965
 -0.0011507790895002  0.7499999302059920  0.7497096852869968
 
  0.00000000E+00  0.00000000E+00  0.00000000E+00
  0.00000000E+00  0.00000000E+00  0.00000000E+00
  0.00000000E+00  0.00000000E+00  0.00000000E+00
  0.00000000E+00  0.00000000E+00  0.00000000E+00
  0.00000000E+00  0.00000000E+00  0.00000000E+00
  0.00000000E+00  0.00000000E+00  0.00000000E+00
  0.00000000E+00  0.00000000E+00  0.00000000E+00
  0.00000000E+00  0.00000000E+00  0.00000000E+00
  0.00000000E+00  0.00000000E+00  0.00000000E+00
  0.00000000E+00  0.00000000E+00  0.00000000E+00
  0.00000000E+00  0.00000000E+00  0.00000000E+00
  0.00000000E+00  0.00000000E+00  0.00000000E+00
  0.00000000E+00  0.00000000E+00  0.00000000E+00
  0.00000000E+00  0.00000000E+00  0.00000000E+00
  0.00000000E+00  0.00000000E+00  0.00000000E+00
  0.00000000E+00  0.00000000E+00  0.00000000E+00
  0.00000000E+00  0.00000000E+00  0.00000000E+00
  0.00000000E+00  0.00000000E+00  0.00000000E+00
  0.00000000E+00  0.00000000E+00  0.00000000E+00
  0.00000000E+00  0.00000000E+00  0.00000000E+00
  0.00000000E+00  0.00000000E+00  0.00000000E+00
  0.00000000E+00  0.00000000E+00  0.00000000E+00
  0.00000000E+00  0.00000000E+00  0.00000000E+00
  0.00000000E+00  0.00000000E+00  0.00000000E+00
  0.00000000E+00  0.00000000E+00  0.00000000E+00
  0.00000000E+00  0.00000000E+00  0.00000000E+00
  0.00000000E+00  0.00000000E+00  0.00000000E+00
  0.00000000E+00  0.00000000E+00  0.00000000E+00
  0.00000000E+00  0.00000000E+00  0.00000000E+00
  0.00000000E+00  0.00000000E+00  0.00000000E+00
  0.00000000E+00  0.00000000E+00  0.00000000E+00
  0.00000000E+00  0.00000000E+00  0.00000000E+00
  0.00000000E+00  0.00000000E+00  0.00000000E+00
  0.00000000E+00  0.00000000E+00  0.00000000E+00
  0.00000000E+00  0.00000000E+00  0.00000000E+00
  0.00000000E+00  0.00000000E+00  0.00000000E+00
  0.00000000E+00  0.00000000E+00  0.00000000E+00
  0.00000000E+00  0.00000000E+00  0.00000000E+00
  0.00000000E+00  0.00000000E+00  0.00000000E+00
  0.00000000E+00  0.00000000E+00  0.00000000E+00
