Cs1 Pb1 Br3                             
   1.00000000000000     
    11.9929599761999999    0.0000000000000000    0.0000000000000000
     0.0000000000000000   11.9929523467999992    0.0000000000000000
     0.0000000000000000    0.0000000000000000   11.9929523467999992
   Cs   Pb   Br
     7     9    24
Direct
  0.5000000666507399  0.4999994750362756  0.5000000075291147
  0.5000003018321303  0.4999999860593453 -0.0000003934662089
  0.4999997979658701 -0.0000001595037196  0.5000000491684597
  0.4999998577810024 -0.0000000417002548 -0.0000000250862694
 -0.0000002508114925  0.4999998208354037  0.5000001062006617
 -0.0000004164567858  0.4999999799124112 -0.0000001698943678
  0.0000002201013858 -0.0000000716657657  0.4999996871442988
  0.0000006252188041 -0.0000008423243810  0.0000005081424912
  0.2457541870087838  0.2468487047222893  0.2455786112383118
  0.2468240100707585  0.2483137472606078  0.7523067910483276
  0.2474842196796163  0.7509484171068179  0.2477712240579639
  0.2468250536334974  0.7526384807084182  0.7538757412965962
  0.7531747724526110  0.2473624919088867  0.2461244209156206
  0.7525147028281767  0.2490524330767193  0.7522284745356776
  0.7531766182879409  0.7516867452912235  0.2476925206502703
  0.7542461998933808  0.7531527175543298  0.7544223054872856
  0.2469338837685181  0.1977007220004854  0.4984337504280150
  0.2600940687367465  0.3003643497485875 -0.0012528441772594
  0.2479473420612646  0.8021695860533672  0.5010921005548269
  0.2609419156684369  0.7013867167650076  0.0013657000089531
  0.7520526087788901  0.1978302415392098  0.4989076115331531
  0.7390579654213461  0.2986126130990844 -0.0013658411034955
  0.7530661876991049  0.8023000534306243  0.5015661867038448
  0.7399059982659676  0.6996359930331637  0.0012526351092319
  0.2847319031735555  0.5031867675692338  0.2855520671187616
  0.2848450411269369  0.4986655142055053  0.7143043593372488
  0.1865620542622922  0.0028908040255593  0.1863632062376371
  0.1861084405053638 -0.0012073582793492  0.8140403773003849
  0.7151547852647214  0.5013335484368044  0.2856955829286114
  0.7152683218211932  0.4968125219224038  0.7144479434406092
  0.8138917727150247  0.0012065540488018  0.1859601371388029
  0.8134384314869116 -0.0028906066237704  0.8136372430101608
  0.4993143996973511  0.1974347866699927  0.2466920498239549
  0.4997978886891019  0.1980137181328290  0.7507400402141188
  0.5002016252065283  0.8019864328332446  0.2492597638051333
  0.5006856683148141  0.8025655528481229  0.7533081463872192
 -0.0004835706523105  0.3015456849294425  0.2589272008053081
 -0.0005757151468827  0.2971399608237069  0.7393797800512051
  0.0005755419906383  0.7028597076838122  0.2606202767266165
  0.0004834750080659  0.6984542508255245  0.7410726676487235
 
  0.00000000E+00  0.00000000E+00  0.00000000E+00
  0.00000000E+00  0.00000000E+00  0.00000000E+00
  0.00000000E+00  0.00000000E+00  0.00000000E+00
  0.00000000E+00  0.00000000E+00  0.00000000E+00
  0.00000000E+00  0.00000000E+00  0.00000000E+00
  0.00000000E+00  0.00000000E+00  0.00000000E+00
  0.00000000E+00  0.00000000E+00  0.00000000E+00
  0.00000000E+00  0.00000000E+00  0.00000000E+00
  0.00000000E+00  0.00000000E+00  0.00000000E+00
  0.00000000E+00  0.00000000E+00  0.00000000E+00
  0.00000000E+00  0.00000000E+00  0.00000000E+00
  0.00000000E+00  0.00000000E+00  0.00000000E+00
  0.00000000E+00  0.00000000E+00  0.00000000E+00
  0.00000000E+00  0.00000000E+00  0.00000000E+00
  0.00000000E+00  0.00000000E+00  0.00000000E+00
  0.00000000E+00  0.00000000E+00  0.00000000E+00
  0.00000000E+00  0.00000000E+00  0.00000000E+00
  0.00000000E+00  0.00000000E+00  0.00000000E+00
  0.00000000E+00  0.00000000E+00  0.00000000E+00
  0.00000000E+00  0.00000000E+00  0.00000000E+00
  0.00000000E+00  0.00000000E+00  0.00000000E+00
  0.00000000E+00  0.00000000E+00  0.00000000E+00
  0.00000000E+00  0.00000000E+00  0.00000000E+00
  0.00000000E+00  0.00000000E+00  0.00000000E+00
  0.00000000E+00  0.00000000E+00  0.00000000E+00
  0.00000000E+00  0.00000000E+00  0.00000000E+00
  0.00000000E+00  0.00000000E+00  0.00000000E+00
  0.00000000E+00  0.00000000E+00  0.00000000E+00
  0.00000000E+00  0.00000000E+00  0.00000000E+00
  0.00000000E+00  0.00000000E+00  0.00000000E+00
  0.00000000E+00  0.00000000E+00  0.00000000E+00
  0.00000000E+00  0.00000000E+00  0.00000000E+00
  0.00000000E+00  0.00000000E+00  0.00000000E+00
  0.00000000E+00  0.00000000E+00  0.00000000E+00
  0.00000000E+00  0.00000000E+00  0.00000000E+00
  0.00000000E+00  0.00000000E+00  0.00000000E+00
  0.00000000E+00  0.00000000E+00  0.00000000E+00
  0.00000000E+00  0.00000000E+00  0.00000000E+00
  0.00000000E+00  0.00000000E+00  0.00000000E+00
  0.00000000E+00  0.00000000E+00  0.00000000E+00
