Cs1 Pb1 Br3                             
   1.00000000000000     
    11.9929599761999999    0.0000000000000000    0.0000000000000000
     0.0000000000000000   11.9929523467999992    0.0000000000000000
     0.0000000000000000    0.0000000000000000   11.9929523467999992
   Cs   Pb   Br
     8     7    25
Direct
  0.5006937014095241  0.5006938668997177  0.5006932226828287
  0.5006937015009962  0.5006938381309102 -0.0006932126837372
  0.5006937225962296 -0.0006938597533482  0.5006932308360668
  0.5006937264932528 -0.0006938661103900 -0.0006932119978460
 -0.0006937113077941  0.5006938490803968  0.5006932193784501
 -0.0006937005970903  0.5006938492557067 -0.0006932010570261
 -0.0006936935949120 -0.0006938409129664  0.5006932147228272
 -0.0006937072013225 -0.0006938329426954 -0.0006932148116696
  0.2500000446850700  0.2500000013161984  0.2499999777066204
  0.2499999818827511  0.2499999384716405  0.7500000277290357
  0.2499999513594670  0.7500000079102283  0.2500000005965845
  0.2499999764061304  0.7499999971465068  0.7499999992729612
  0.7500000010887825  0.2500000547893555  0.2499999852119035
  0.7499999950017768  0.2499999948508244  0.7500000119269778
  0.7500000449057942  0.7499999615398584  0.2499999751976226
  0.7500000020284368  0.7500000103327740  0.7500000077308429
  0.2500000101839426  0.2500000180284107  0.5001756929815161
  0.2500000034556035  0.2500000073214615 -0.0001757136355369
  0.2499999937952275  0.7499999933455695  0.5004700712555924
  0.2499999985108869  0.7499999999728821 -0.0004700577883403
  0.7500000012542428  0.2500000158581626  0.5004710555987104
  0.7500000136491887  0.2499999934414939 -0.0004710568004288
  0.7499999988238798  0.7499999881860038  0.4899835120569960
  0.7499999960445297  0.7499999964942498  0.0100164936959661
  0.2499999905224438  0.5001764492262073  0.2500000032375906
  0.2500000036694504  0.5004708702536976  0.7499999999846637
  0.2499999803789835 -0.0001764620174703  0.2499999766754585
  0.2500000097099476 -0.0004708547990150  0.7499999851785495
  0.7499999775855628  0.5004712470793579  0.2499999981375773
  0.7499999879285071  0.4900116809475136  0.7500000126873536
  0.7500000062323694 -0.0004712466997020  0.2499999829436428
  0.7500000000722715  0.0099883246378568  0.7500000025475040
  0.5001764205487365  0.2500000285271563  0.2499999916455674
  0.5004719357631080  0.2500000149070341  0.7500000034739256
  0.5004712620980551  0.7499999846757243  0.2500000038402986
  0.4899791579099072  0.7499999901262977  0.7499999871946736
 -0.0001764312284712  0.2500000027181969  0.2499999903841096
 -0.0004719274030771  0.2499999936833977  0.7500000222100499
 -0.0004712666847940  0.7499999989952539  0.2500000010899084
  0.0100208405224056  0.7499999950855415  0.7500000089622085
 
  0.00000000E+00  0.00000000E+00  0.00000000E+00
  0.00000000E+00  0.00000000E+00  0.00000000E+00
  0.00000000E+00  0.00000000E+00  0.00000000E+00
  0.00000000E+00  0.00000000E+00  0.00000000E+00
  0.00000000E+00  0.00000000E+00  0.00000000E+00
  0.00000000E+00  0.00000000E+00  0.00000000E+00
  0.00000000E+00  0.00000000E+00  0.00000000E+00
  0.00000000E+00  0.00000000E+00  0.00000000E+00
  0.00000000E+00  0.00000000E+00  0.00000000E+00
  0.00000000E+00  0.00000000E+00  0.00000000E+00
  0.00000000E+00  0.00000000E+00  0.00000000E+00
  0.00000000E+00  0.00000000E+00  0.00000000E+00
  0.00000000E+00  0.00000000E+00  0.00000000E+00
  0.00000000E+00  0.00000000E+00  0.00000000E+00
  0.00000000E+00  0.00000000E+00  0.00000000E+00
  0.00000000E+00  0.00000000E+00  0.00000000E+00
  0.00000000E+00  0.00000000E+00  0.00000000E+00
  0.00000000E+00  0.00000000E+00  0.00000000E+00
  0.00000000E+00  0.00000000E+00  0.00000000E+00
  0.00000000E+00  0.00000000E+00  0.00000000E+00
  0.00000000E+00  0.00000000E+00  0.00000000E+00
  0.00000000E+00  0.00000000E+00  0.00000000E+00
  0.00000000E+00  0.00000000E+00  0.00000000E+00
  0.00000000E+00  0.00000000E+00  0.00000000E+00
  0.00000000E+00  0.00000000E+00  0.00000000E+00
  0.00000000E+00  0.00000000E+00  0.00000000E+00
  0.00000000E+00  0.00000000E+00  0.00000000E+00
  0.00000000E+00  0.00000000E+00  0.00000000E+00
  0.00000000E+00  0.00000000E+00  0.00000000E+00
  0.00000000E+00  0.00000000E+00  0.00000000E+00
  0.00000000E+00  0.00000000E+00  0.00000000E+00
  0.00000000E+00  0.00000000E+00  0.00000000E+00
  0.00000000E+00  0.00000000E+00  0.00000000E+00
  0.00000000E+00  0.00000000E+00  0.00000000E+00
  0.00000000E+00  0.00000000E+00  0.00000000E+00
  0.00000000E+00  0.00000000E+00  0.00000000E+00
  0.00000000E+00  0.00000000E+00  0.00000000E+00
  0.00000000E+00  0.00000000E+00  0.00000000E+00
  0.00000000E+00  0.00000000E+00  0.00000000E+00
  0.00000000E+00  0.00000000E+00  0.00000000E+00
