Cs1 Pb1 Br3                             
   1.00000000000000     
    11.9929599761999999    0.0000000000000000    0.0000000000000000
     0.0000000000000000   11.9929523467999992    0.0000000000000000
     0.0000000000000000    0.0000000000000000   11.9929523467999992
   Cs   Pb   Br
     9     7    24
Direct
  0.4995451777786709  0.4995450582075179  0.4995452284600599
  0.4995451848161959  0.4995450844946963  0.0004547560727472
  0.4995451752641242  0.0004549396341954  0.4995452169241702
  0.4995451837785339  0.0004549364497687  0.0004547855548891
  0.0004548201056455  0.4995450635612061  0.4995452213043184
  0.0004548084484982  0.4995450686939061  0.0004547882783979
  0.0004548070157243  0.0004549216507034  0.4995452305699219
  0.0004548306950681  0.0004549393660587  0.0004547664255524
  0.2499999986760860  0.2499999995946525  0.2499999984690608
  0.2500000024703066  0.2499999944466846  0.7499999937428661
  0.2499999862880308  0.7499999959423177  0.2499999962518002
  0.2499999986405836  0.7499999991537499  0.7500000020883215
  0.7500000020100314  0.2499999931014738  0.2500000101671752
  0.7499999987261000  0.2500000021529278  0.7499999987823746
  0.7500000012736251  0.7499999998126936  0.2500000003054528
  0.7500000004334797  0.7500000061089405  0.7499999982952563
  0.2499999996315447  0.2500000013441965  0.5145812601568641
  0.2499999988870751  0.2499999961464701 -0.0145812621759629
  0.2499999950684560  0.7499999956742555  0.5004026105433462
  0.2499999953687689  0.7500000012428063 -0.0004026045204241
  0.7499999990187202  0.2500000019445529  0.5004014977804984
  0.7500000037776628  0.2499999995798591 -0.0004014992910508
  0.7500000021370410  0.7499999988061489  0.5000702584684181
  0.7500000050825369  0.7500000025366728 -0.0000702535334859
  0.2499999986618904  0.5145804029548385  0.2500000018358161
  0.2500000004095191  0.5004014804162764  0.7499999943077373
  0.2500000001763071 -0.0145803991469731  0.2499999962239426
  0.2499999983646318 -0.0004014887587221  0.7499999998402965
  0.7500000066891042  0.5004013255399553  0.2500000095064816
  0.7500000037865877  0.5000701333242573  0.7499999940370939
  0.7499999988610010 -0.0004013242079808  0.2500000068020261
  0.7499999953529900 -0.0000701342652682  0.7500000045290276
  0.5145810661274853  0.2500000007137061  0.2500000006942443
  0.5004016738076090  0.2499999990623699  0.7499999964449436
  0.5004025733110365  0.7500000010447141  0.2499999972239496
  0.5000702623692149  0.7500000016463266  0.7499999988430369
 -0.0145810585542899  0.2500000043827821  0.2500000018316212
 -0.0004016684183308  0.2499999987099727  0.7499999990253599
 -0.0004025629846913  0.7500000024386491  0.2499999977344805
 -0.0000702633525747  0.7499999964986412  0.7500000019993742
 
  0.00000000E+00  0.00000000E+00  0.00000000E+00
  0.00000000E+00  0.00000000E+00  0.00000000E+00
  0.00000000E+00  0.00000000E+00  0.00000000E+00
  0.00000000E+00  0.00000000E+00  0.00000000E+00
  0.00000000E+00  0.00000000E+00  0.00000000E+00
  0.00000000E+00  0.00000000E+00  0.00000000E+00
  0.00000000E+00  0.00000000E+00  0.00000000E+00
  0.00000000E+00  0.00000000E+00  0.00000000E+00
  0.00000000E+00  0.00000000E+00  0.00000000E+00
  0.00000000E+00  0.00000000E+00  0.00000000E+00
  0.00000000E+00  0.00000000E+00  0.00000000E+00
  0.00000000E+00  0.00000000E+00  0.00000000E+00
  0.00000000E+00  0.00000000E+00  0.00000000E+00
  0.00000000E+00  0.00000000E+00  0.00000000E+00
  0.00000000E+00  0.00000000E+00  0.00000000E+00
  0.00000000E+00  0.00000000E+00  0.00000000E+00
  0.00000000E+00  0.00000000E+00  0.00000000E+00
  0.00000000E+00  0.00000000E+00  0.00000000E+00
  0.00000000E+00  0.00000000E+00  0.00000000E+00
  0.00000000E+00  0.00000000E+00  0.00000000E+00
  0.00000000E+00  0.00000000E+00  0.00000000E+00
  0.00000000E+00  0.00000000E+00  0.00000000E+00
  0.00000000E+00  0.00000000E+00  0.00000000E+00
  0.00000000E+00  0.00000000E+00  0.00000000E+00
  0.00000000E+00  0.00000000E+00  0.00000000E+00
  0.00000000E+00  0.00000000E+00  0.00000000E+00
  0.00000000E+00  0.00000000E+00  0.00000000E+00
  0.00000000E+00  0.00000000E+00  0.00000000E+00
  0.00000000E+00  0.00000000E+00  0.00000000E+00
  0.00000000E+00  0.00000000E+00  0.00000000E+00
  0.00000000E+00  0.00000000E+00  0.00000000E+00
  0.00000000E+00  0.00000000E+00  0.00000000E+00
  0.00000000E+00  0.00000000E+00  0.00000000E+00
  0.00000000E+00  0.00000000E+00  0.00000000E+00
  0.00000000E+00  0.00000000E+00  0.00000000E+00
  0.00000000E+00  0.00000000E+00  0.00000000E+00
  0.00000000E+00  0.00000000E+00  0.00000000E+00
  0.00000000E+00  0.00000000E+00  0.00000000E+00
  0.00000000E+00  0.00000000E+00  0.00000000E+00
  0.00000000E+00  0.00000000E+00  0.00000000E+00
