Cs1 Pb1 Br3                             
   1.00000000000000     
    11.9929599761999999    0.0000000000000000    0.0000000000000000
     0.0000000000000000   11.9929523467999992    0.0000000000000000
     0.0000000000000000    0.0000000000000000   11.9929523467999992
   Cs   Pb   Br
     8     7    24
Direct
  0.4805394123954640  0.4805392522944697  0.4805385864887082
  0.4805395155147459  0.4805393016135280  0.0194613545791659
  0.4805394422257977  0.0194607021111169  0.4805385634458653
  0.4805394809140442  0.0194607142776852  0.0194613464049692
  0.0194605447087309  0.4805392654708789  0.4805386108029723
  0.0194605310674589  0.4805392765163456  0.0194613785363829
  0.0194604894275512  0.0194607538459656  0.4805386215195529
  0.0194606183129910  0.0194607238811219  0.0194614617877100
  0.2500000368828363  0.2499999697564272  0.7500000246118286
  0.2499999842442068  0.7499999944496506  0.2499999937402288
  0.2500000074083363  0.7499999698261162  0.7499999772357155
  0.7499999941861684  0.2499999818300722  0.2499999870186768
  0.7500000416443650  0.2499999742475242  0.7499999782915471
  0.7499999848215879  0.7499999845788364  0.2499999615673288
  0.7500000222902289  0.7499999596243390  0.7499999606929906
  0.2499999973351093  0.2500000054942857  0.5068181156006630
  0.2499999988486616  0.2499999959008331 -0.0068181344279308
  0.2500000050747425  0.7500000011186840  0.4995215358661194
  0.2499999892355228  0.7499999909643080  0.0004784642027559
  0.7500000100163430  0.2500000035538850  0.4995247921555659
  0.7499999900822342  0.2500000170275059  0.0004752215733110
  0.7499999987418718  0.7500000272922558  0.4988704445230459
  0.7499999891587261  0.7499999947672609  0.0011295851955336
  0.2500000012854580  0.5068620673601396  0.2500000383587331
  0.2499999907908732  0.4995289103650897  0.7499999669395528
  0.2499999847493955 -0.0068620621078801  0.2499999931644942
  0.2499999959026303  0.0004711261800887  0.7500000410216917
  0.7499999946747377  0.4995271361642124  0.2499999681603746
  0.7500000082960790  0.4988723738597161  0.7500000708313015
  0.7499999939763586  0.0004728931303435  0.2500000463926884
  0.7499999864107648  0.0011276524680593  0.7499999745383827
  0.5068291318033886  0.2500000056691750  0.2500000408863238
  0.4995269139023020  0.2500000022701055  0.7499999603173261
  0.4995218499362373  0.7500000059228575  0.2499999692973835
  0.4988708627923337  0.7500000162720148  0.7500000617614075
 -0.0068291218347415  0.2499999947847559  0.2499999947929357
  0.0004730487874209  0.2500000144967982  0.7500000166280025
  0.0004781547885845  0.7500000177966486  0.2500000352354945
  0.0011291192004531  0.7499999849247789  0.7499999902612011
 
  0.00000000E+00  0.00000000E+00  0.00000000E+00
  0.00000000E+00  0.00000000E+00  0.00000000E+00
  0.00000000E+00  0.00000000E+00  0.00000000E+00
  0.00000000E+00  0.00000000E+00  0.00000000E+00
  0.00000000E+00  0.00000000E+00  0.00000000E+00
  0.00000000E+00  0.00000000E+00  0.00000000E+00
  0.00000000E+00  0.00000000E+00  0.00000000E+00
  0.00000000E+00  0.00000000E+00  0.00000000E+00
  0.00000000E+00  0.00000000E+00  0.00000000E+00
  0.00000000E+00  0.00000000E+00  0.00000000E+00
  0.00000000E+00  0.00000000E+00  0.00000000E+00
  0.00000000E+00  0.00000000E+00  0.00000000E+00
  0.00000000E+00  0.00000000E+00  0.00000000E+00
  0.00000000E+00  0.00000000E+00  0.00000000E+00
  0.00000000E+00  0.00000000E+00  0.00000000E+00
  0.00000000E+00  0.00000000E+00  0.00000000E+00
  0.00000000E+00  0.00000000E+00  0.00000000E+00
  0.00000000E+00  0.00000000E+00  0.00000000E+00
  0.00000000E+00  0.00000000E+00  0.00000000E+00
  0.00000000E+00  0.00000000E+00  0.00000000E+00
  0.00000000E+00  0.00000000E+00  0.00000000E+00
  0.00000000E+00  0.00000000E+00  0.00000000E+00
  0.00000000E+00  0.00000000E+00  0.00000000E+00
  0.00000000E+00  0.00000000E+00  0.00000000E+00
  0.00000000E+00  0.00000000E+00  0.00000000E+00
  0.00000000E+00  0.00000000E+00  0.00000000E+00
  0.00000000E+00  0.00000000E+00  0.00000000E+00
  0.00000000E+00  0.00000000E+00  0.00000000E+00
  0.00000000E+00  0.00000000E+00  0.00000000E+00
  0.00000000E+00  0.00000000E+00  0.00000000E+00
  0.00000000E+00  0.00000000E+00  0.00000000E+00
  0.00000000E+00  0.00000000E+00  0.00000000E+00
  0.00000000E+00  0.00000000E+00  0.00000000E+00
  0.00000000E+00  0.00000000E+00  0.00000000E+00
  0.00000000E+00  0.00000000E+00  0.00000000E+00
  0.00000000E+00  0.00000000E+00  0.00000000E+00
  0.00000000E+00  0.00000000E+00  0.00000000E+00
  0.00000000E+00  0.00000000E+00  0.00000000E+00
  0.00000000E+00  0.00000000E+00  0.00000000E+00
