Cs1 Pb1 Br3                             
   1.00000000000000     
    11.9929599761999999    0.0000000000000000    0.0000000000000000
     0.0000000000000000   11.9929523467999992    0.0000000000000000
     0.0000000000000000    0.0000000000000000   11.9929523467999992
   Cs   Pb   Br
     8     9    24
Direct
  0.4999999955067139  0.4305776262829333  0.4999999946481165
  0.5000000002056408  0.4975471437271257  0.0000000017874330
  0.4999999989931713  0.0694223618968108  0.4999999844411820
  0.5000000014741517  0.0024528510017786 -0.0000000017053314
  0.0000000029654180  0.4975470731436067  0.5000000002905634
  0.0000000041030969  0.4982832721340315 -0.0000000006411371
  0.0000000091734951  0.0024529111322392  0.4999999998502768
 -0.0000000075447992  0.0017167327183225  0.0000000049208702
  0.5000000067817978  0.7500000042536431  0.5000000014971712
  0.2481073822885172  0.2500000028833194  0.2481073833306894
  0.2481073851481592  0.2500000026378148  0.7518925703859243
  0.2469378713202653  0.7500000004894880  0.2469377820213865
  0.2469378539879975  0.7500000004885486  0.7530621713368524
  0.7518926139562280  0.2500000057075735  0.2481074255517539
  0.7518926138028015  0.2499999977609843  0.7518926129132143
  0.7530621431216751  0.7500000016986771  0.2469378439448262
  0.7530621338736204  0.7499999896064270  0.7530622165512957
  0.2453311622411193  0.2500000009510633  0.4999999816131816
  0.2501147666915988  0.2500000046648080  0.0000000050189977
  0.2359639210954956  0.7499999984017115  0.5000000088910390
  0.2502314134889407  0.7499999939133101  0.0000000144529004
  0.7546688291647115  0.2500000051781213  0.5000000134206344
  0.7498852279364115  0.2500000034398594 -0.0000000119041300
  0.7640360928995765  0.7500000024132264  0.5000000192289640
  0.7497685799505895  0.7500000063609921 -0.0000000122197032
  0.2494208572405026  0.4994920066749907  0.2494208717463352
  0.2494208586118491  0.4994920078035930  0.7505791382115157
  0.2494208567817947  0.0005080004851113  0.2494208745992648
  0.2494208617245801  0.0005079965332552  0.7505791370888542
  0.7505791416722548  0.4994920051305888  0.2494208604072513
  0.7505791369197469  0.4994919907241901  0.7505791299603763
  0.7505791382060596  0.0005080026443680  0.2494208558645731
  0.7505791381807432  0.0005079880365376  0.7505791266053881
  0.5000000006572037  0.2500000061383194  0.2453311050326869
  0.4999999982867964  0.2500000001538880  0.7546688824403861
  0.5000000234381211  0.7500000058607535  0.2359637579259390
  0.4999999939008663  0.7499999974224436  0.7640362580776886
 -0.0000000042418836  0.2500000009518414  0.2501146982120916
 -0.0000000076035927  0.2500000034555550  0.7498852965613477
  0.0000000060950683  0.7499999967482903  0.2502314616040496
 -0.0000000024965047  0.7499999983498569  0.7497685360352816
 
  0.00000000E+00  0.00000000E+00  0.00000000E+00
  0.00000000E+00  0.00000000E+00  0.00000000E+00
  0.00000000E+00  0.00000000E+00  0.00000000E+00
  0.00000000E+00  0.00000000E+00  0.00000000E+00
  0.00000000E+00  0.00000000E+00  0.00000000E+00
  0.00000000E+00  0.00000000E+00  0.00000000E+00
  0.00000000E+00  0.00000000E+00  0.00000000E+00
  0.00000000E+00  0.00000000E+00  0.00000000E+00
  0.00000000E+00  0.00000000E+00  0.00000000E+00
  0.00000000E+00  0.00000000E+00  0.00000000E+00
  0.00000000E+00  0.00000000E+00  0.00000000E+00
  0.00000000E+00  0.00000000E+00  0.00000000E+00
  0.00000000E+00  0.00000000E+00  0.00000000E+00
  0.00000000E+00  0.00000000E+00  0.00000000E+00
  0.00000000E+00  0.00000000E+00  0.00000000E+00
  0.00000000E+00  0.00000000E+00  0.00000000E+00
  0.00000000E+00  0.00000000E+00  0.00000000E+00
  0.00000000E+00  0.00000000E+00  0.00000000E+00
  0.00000000E+00  0.00000000E+00  0.00000000E+00
  0.00000000E+00  0.00000000E+00  0.00000000E+00
  0.00000000E+00  0.00000000E+00  0.00000000E+00
  0.00000000E+00  0.00000000E+00  0.00000000E+00
  0.00000000E+00  0.00000000E+00  0.00000000E+00
  0.00000000E+00  0.00000000E+00  0.00000000E+00
  0.00000000E+00  0.00000000E+00  0.00000000E+00
  0.00000000E+00  0.00000000E+00  0.00000000E+00
  0.00000000E+00  0.00000000E+00  0.00000000E+00
  0.00000000E+00  0.00000000E+00  0.00000000E+00
  0.00000000E+00  0.00000000E+00  0.00000000E+00
  0.00000000E+00  0.00000000E+00  0.00000000E+00
  0.00000000E+00  0.00000000E+00  0.00000000E+00
  0.00000000E+00  0.00000000E+00  0.00000000E+00
  0.00000000E+00  0.00000000E+00  0.00000000E+00
  0.00000000E+00  0.00000000E+00  0.00000000E+00
  0.00000000E+00  0.00000000E+00  0.00000000E+00
  0.00000000E+00  0.00000000E+00  0.00000000E+00
  0.00000000E+00  0.00000000E+00  0.00000000E+00
  0.00000000E+00  0.00000000E+00  0.00000000E+00
  0.00000000E+00  0.00000000E+00  0.00000000E+00
  0.00000000E+00  0.00000000E+00  0.00000000E+00
  0.00000000E+00  0.00000000E+00  0.00000000E+00
