Cs1 Pb1 Br3                             
   1.00000000000000     
    11.9929599761999999    0.0000000000000000    0.0000000000000000
     0.0000000000000000   11.9929523467999992    0.0000000000000000
     0.0000000000000000    0.0000000000000000   11.9929523467999992
   Cs   Pb   Br   Br
     8     8    24     1
Direct
  0.4999999966546424  0.4585365495535390  0.5000000053789599
  0.4999999979081363  0.5034716183917233 -0.0000000040165177
  0.5000000081818348  0.0414604464239581  0.4999999957642313
  0.4999999954503638 -0.0034710911705786 -0.0000000023088441
  0.0000000062027100  0.5032231093858365  0.5000000114276295
  0.0000000003002904  0.5163361204107959 -0.0000000014449523
 -0.0000000086275180 -0.0032223778514959  0.4999999853109449
 -0.0000000010427982 -0.0163357335042938  0.0000000027476159
  0.2483925694139256  0.2499998442539883  0.2483822811019824
  0.2483916674533387  0.2499998517045326  0.7516180678121184
  0.2519509197170267  0.7500001970735289  0.2523593852138298
  0.2519354415494621  0.7500001901522807  0.7476495970861549
  0.7516083361086452  0.2499998546891946  0.2483819354418511
  0.7516074297384638  0.2499998404003709  0.7516177251548819
  0.7480645424935188  0.7500001862317770  0.2523504058284809
  0.7480490844778753  0.7500001952345333  0.7476406140476068
  0.2503399610297011  0.2499997775203487  0.5000002080797750
  0.2498402923849531  0.2500002339222579 -0.0000009972844065
  0.1908969294414723  0.7500004906818910  0.4999960049764996
  0.2293138942939504  0.7500000111069780  0.0000159917490243
  0.7496600423395747  0.2499997924636335  0.4999997956027190
  0.7501597093423864  0.2500002141037830  0.0000009914794552
  0.8091030708274973  0.7500004739888305  0.5000039953865015
  0.7706861050617122  0.7500000126192419 -0.0000159909647208
  0.2512871112071970  0.4994497753242532  0.2512748196668045
  0.2512857654460300  0.4994344174734654  0.7487259665722454
  0.2512871505631997  0.0005504166935851  0.2512747369905377
  0.2512856367521181  0.0005657749308114  0.7487260152135911
  0.7487143148068758  0.4994344201645128  0.2512740557764353
  0.7487128031776779  0.4994497691072252  0.7487252298548335
  0.7487142775777351  0.0005657725696994  0.2512739776739791
  0.7487129426462849  0.0005504195072190  0.7487252189842174
  0.5000004067095954  0.2499997971142258  0.2503078637734901
  0.4999995969433719  0.2499997550115927  0.7496921430580274
  0.4999967994180931  0.7500003778457032  0.1922313131320031
  0.5000032004106205  0.7500004096777810  0.8077686823010705
 -0.0000007818590572  0.2500001846752391  0.2497989704617233
  0.0000007828041262  0.2500002311054894  0.7502010314342210
  0.0000165206461971  0.7500000175383609  0.2285339336106302
 -0.0000165179163758  0.7499999598653145  0.7714660612811733
  0.4999999999651446  0.7499986936088666  0.4999999766441974
 
  0.00000000E+00  0.00000000E+00  0.00000000E+00
  0.00000000E+00  0.00000000E+00  0.00000000E+00
  0.00000000E+00  0.00000000E+00  0.00000000E+00
  0.00000000E+00  0.00000000E+00  0.00000000E+00
  0.00000000E+00  0.00000000E+00  0.00000000E+00
  0.00000000E+00  0.00000000E+00  0.00000000E+00
  0.00000000E+00  0.00000000E+00  0.00000000E+00
  0.00000000E+00  0.00000000E+00  0.00000000E+00
  0.00000000E+00  0.00000000E+00  0.00000000E+00
  0.00000000E+00  0.00000000E+00  0.00000000E+00
  0.00000000E+00  0.00000000E+00  0.00000000E+00
  0.00000000E+00  0.00000000E+00  0.00000000E+00
  0.00000000E+00  0.00000000E+00  0.00000000E+00
  0.00000000E+00  0.00000000E+00  0.00000000E+00
  0.00000000E+00  0.00000000E+00  0.00000000E+00
  0.00000000E+00  0.00000000E+00  0.00000000E+00
  0.00000000E+00  0.00000000E+00  0.00000000E+00
  0.00000000E+00  0.00000000E+00  0.00000000E+00
  0.00000000E+00  0.00000000E+00  0.00000000E+00
  0.00000000E+00  0.00000000E+00  0.00000000E+00
  0.00000000E+00  0.00000000E+00  0.00000000E+00
  0.00000000E+00  0.00000000E+00  0.00000000E+00
  0.00000000E+00  0.00000000E+00  0.00000000E+00
  0.00000000E+00  0.00000000E+00  0.00000000E+00
  0.00000000E+00  0.00000000E+00  0.00000000E+00
  0.00000000E+00  0.00000000E+00  0.00000000E+00
  0.00000000E+00  0.00000000E+00  0.00000000E+00
  0.00000000E+00  0.00000000E+00  0.00000000E+00
  0.00000000E+00  0.00000000E+00  0.00000000E+00
  0.00000000E+00  0.00000000E+00  0.00000000E+00
  0.00000000E+00  0.00000000E+00  0.00000000E+00
  0.00000000E+00  0.00000000E+00  0.00000000E+00
  0.00000000E+00  0.00000000E+00  0.00000000E+00
  0.00000000E+00  0.00000000E+00  0.00000000E+00
  0.00000000E+00  0.00000000E+00  0.00000000E+00
  0.00000000E+00  0.00000000E+00  0.00000000E+00
  0.00000000E+00  0.00000000E+00  0.00000000E+00
  0.00000000E+00  0.00000000E+00  0.00000000E+00
  0.00000000E+00  0.00000000E+00  0.00000000E+00
  0.00000000E+00  0.00000000E+00  0.00000000E+00
  0.00000000E+00  0.00000000E+00  0.00000000E+00
