0.0% N(Distort)=1 ~[0.4,0.4,0.4]        
   1.0000000000000000     
    11.9929539999999992    0.0000000000000000    0.0000000000000000
     0.0000000000000000   11.9929539999999992    0.0000000000000000
     0.0000000000000000    0.0000000000000000   11.9929539999999992
   Cs   Pb   Br
     8     8    25
Direct
  0.0044719695475788  0.0046007167376932  0.0194800583994613
  0.0478526525078618 -0.0018618211549616  0.4905364061067415
  0.0194274331778871  0.4998017354451232  0.9490602880345043
  0.9507746581220132  0.5004547662323954  0.4940645309528558
  0.4393189458587730  0.0040922446417931  0.0078634887770080
  0.5091604163817951  0.0020500823580756  0.4452251428398434
  0.5447844581706844  0.4995039822600106  0.9894224454035614
  0.5151565914356817  0.5099477680137573  0.5250747160043794
  0.2520323142705130  0.3114214368727733  0.2636355080964873
  0.2586591486592431  0.2475999547098772  0.7492147496407937
  0.2528019184790975  0.7325371388267344  0.2482152133893741
  0.2610352930200545  0.7509514304400341  0.7480600238678843
  0.7522289813019352  0.2551065640297655  0.2475208355809614
  0.7591317108633466  0.2454137949073438  0.7491492630469093
  0.7557874860636368  0.7529199294011647  0.2469217532601949
  0.7609143546705622  0.7580740653775843  0.7504107580971736
  0.2393044597420959  0.4998678712238159  0.4097619546509618
  0.2146866277283068  0.2253545718664395  0.9909506829571312
  0.2914745049882129  0.2053317894559256  0.5021502453297103
  0.2104477540853965  0.7765488752194508  0.9967597395212834
  0.3034951558779482  0.7843329823462177  0.5063035682662500
  0.7954882210629725  0.2704671892111977  0.9993100448388909
  0.7171867279547031  0.2523105261360079  0.5000460983709593
  0.8017176776684395  0.7349799524095221 -0.0000256389927546
  0.7185443429460804  0.7559461874826353  0.5007043328318894
  0.2425789269245562  0.9803335799130706  0.2473245267073431
  0.2263603003779979 -0.0014126155206373  0.7576994552469307
  0.2732725229940152  0.5035090687525755  0.1139187245640251
  0.2928494850282241  0.4988225596639058  0.7595367495500198
  0.7716233452866664  0.0038125010448683  0.2478090570541002
  0.8087167755224876  0.0019735133075868  0.7515407657515725
  0.7272647671969271  0.5039343939571004  0.2633807167857040
  0.7426457901967406  0.5020109898307207  0.7432984894904218
  0.0049199039285605  0.2675604717887744  0.2814152643438937
  0.0103036418093764  0.2808356034548196  0.7105839488615795
  0.0028445850266028  0.7375219030552460  0.2905997782421789
  0.0118884429663255  0.7203619323919830  0.7095540275810919
  0.5046382934472821  0.2446527066151430  0.2180729244920731
  0.5114237909479861  0.2295866483077857  0.7896482288702389
  0.5069402178093197  0.7640919310529340  0.2113862774748768
  0.5128565002299444  0.7699173345006506  0.7947626981281452

  0.00000000E+00  0.00000000E+00  0.00000000E+00
  0.00000000E+00  0.00000000E+00  0.00000000E+00
  0.00000000E+00  0.00000000E+00  0.00000000E+00
  0.00000000E+00  0.00000000E+00  0.00000000E+00
  0.00000000E+00  0.00000000E+00  0.00000000E+00
  0.00000000E+00  0.00000000E+00  0.00000000E+00
  0.00000000E+00  0.00000000E+00  0.00000000E+00
  0.00000000E+00  0.00000000E+00  0.00000000E+00
  0.00000000E+00  0.00000000E+00  0.00000000E+00
  0.00000000E+00  0.00000000E+00  0.00000000E+00
  0.00000000E+00  0.00000000E+00  0.00000000E+00
  0.00000000E+00  0.00000000E+00  0.00000000E+00
  0.00000000E+00  0.00000000E+00  0.00000000E+00
  0.00000000E+00  0.00000000E+00  0.00000000E+00
  0.00000000E+00  0.00000000E+00  0.00000000E+00
  0.00000000E+00  0.00000000E+00  0.00000000E+00
  0.00000000E+00  0.00000000E+00  0.00000000E+00
  0.00000000E+00  0.00000000E+00  0.00000000E+00
  0.00000000E+00  0.00000000E+00  0.00000000E+00
  0.00000000E+00  0.00000000E+00  0.00000000E+00
  0.00000000E+00  0.00000000E+00  0.00000000E+00
  0.00000000E+00  0.00000000E+00  0.00000000E+00
  0.00000000E+00  0.00000000E+00  0.00000000E+00
  0.00000000E+00  0.00000000E+00  0.00000000E+00
  0.00000000E+00  0.00000000E+00  0.00000000E+00
  0.00000000E+00  0.00000000E+00  0.00000000E+00
  0.00000000E+00  0.00000000E+00  0.00000000E+00
  0.00000000E+00  0.00000000E+00  0.00000000E+00
  0.00000000E+00  0.00000000E+00  0.00000000E+00
  0.00000000E+00  0.00000000E+00  0.00000000E+00
  0.00000000E+00  0.00000000E+00  0.00000000E+00
  0.00000000E+00  0.00000000E+00  0.00000000E+00
  0.00000000E+00  0.00000000E+00  0.00000000E+00
  0.00000000E+00  0.00000000E+00  0.00000000E+00
  0.00000000E+00  0.00000000E+00  0.00000000E+00
  0.00000000E+00  0.00000000E+00  0.00000000E+00
  0.00000000E+00  0.00000000E+00  0.00000000E+00
  0.00000000E+00  0.00000000E+00  0.00000000E+00
  0.00000000E+00  0.00000000E+00  0.00000000E+00
  0.00000000E+00  0.00000000E+00  0.00000000E+00
  0.00000000E+00  0.00000000E+00  0.00000000E+00
