0.0% N(Distort)=2 ~[0.5,0.5,0.5]        
   1.0000000000000000     
    11.9929539999999992    0.0000000000000000    0.0000000000000000
     0.0000000000000000   11.9929539999999992    0.0000000000000000
     0.0000000000000000    0.0000000000000000   11.9929539999999992
   Cs   Pb   Br
     7     8    25
Direct
  0.9929693869135076  0.9839133520171045  0.0282122663942066
  0.0488101945356127  0.9559042567847195  0.5098946384550729
  0.0308774324362008  0.4999012104119420  0.9727770001235153
  0.0185929219015256  0.5095038493564534  0.4640717608096979
  0.4660570453554463  0.9993587666892129  0.0143894414037596
  0.4940179260798707  0.9390874291273645  0.4511493838875997
  0.5308609617443294  0.5068788501125340  0.0121610454250213
  0.2463602484512571  0.2506907356424166  0.2327203650282273
  0.3232767582592849  0.2420532443037064  0.7323373286233381
  0.2559830988497508  0.7427323838331727  0.2214127117603169
  0.3029978355017138  0.7304452290415168  0.7433463733037898
  0.7492338309063800  0.2428621669053390  0.2925872075226333
  0.7392971158838650  0.2170006807883288  0.6771885383294085
  0.7586726072498292  0.7456777756931831  0.2422516949689425
  0.7824414374517978  0.7474122268424258  0.7391524470883689
  0.4697260336124262  0.6125373564291148  0.5464332989394989
  0.2112766387023329  0.2030476083873192  0.9394251213536540
  0.2290864563041013  0.2719995271529182  0.4707155361037243
  0.2245358448842571  0.7850647474262877  0.9726541721790390
  0.2591613787716491  0.7246535874361963  0.4716438184233640
  0.9717887993186597  0.2538949592763105  0.1740203122963377
  0.5809001945332544  0.2223343972735365  0.4998151099137659
  0.8061813436679540  0.7128475960897965  0.9929972879233135
  0.7670032876657500  0.8040020893638095  0.4912625617326118
  0.2510236983664862  0.9970594482430137  0.2526106488698901
  0.3068900567503899  0.9964400518033859  0.6906593417464254
  0.2387102005194255  0.4980805149473619  0.1930636010391519
  0.2923899753107871  0.4920423827771210  0.8053005442246008
  0.7322394319282132  0.0030145041318695  0.2102273348828706
  0.8260524881174881  0.9879727768263978  0.7657176308731908
  0.7602943385193884  0.4965776163086460  0.2648539728833093
  0.6334705872730774  0.5304837098332795  0.6323447388692462
  0.8996671817130915  0.2196042095165195  0.4866703338760962
  0.8344468430850756  0.4367550963788254  0.7426892312861210
  0.0071312865806054  0.7612535320190927  0.2603837314338852
  0.0255819309075322  0.7119259226061720  0.7100085747743791
  0.4882811608383330  0.2531825692291700  0.1916476004513407
  0.5405619438344792  0.2387653771573735  0.8394292002427030
  0.5057234901459055  0.7498157951611826  0.2036011572591515
  0.5295338229815582  0.7717507057746311  0.8238399267289257

  0.00000000E+00  0.00000000E+00  0.00000000E+00
  0.00000000E+00  0.00000000E+00  0.00000000E+00
  0.00000000E+00  0.00000000E+00  0.00000000E+00
  0.00000000E+00  0.00000000E+00  0.00000000E+00
  0.00000000E+00  0.00000000E+00  0.00000000E+00
  0.00000000E+00  0.00000000E+00  0.00000000E+00
  0.00000000E+00  0.00000000E+00  0.00000000E+00
  0.00000000E+00  0.00000000E+00  0.00000000E+00
  0.00000000E+00  0.00000000E+00  0.00000000E+00
  0.00000000E+00  0.00000000E+00  0.00000000E+00
  0.00000000E+00  0.00000000E+00  0.00000000E+00
  0.00000000E+00  0.00000000E+00  0.00000000E+00
  0.00000000E+00  0.00000000E+00  0.00000000E+00
  0.00000000E+00  0.00000000E+00  0.00000000E+00
  0.00000000E+00  0.00000000E+00  0.00000000E+00
  0.00000000E+00  0.00000000E+00  0.00000000E+00
  0.00000000E+00  0.00000000E+00  0.00000000E+00
  0.00000000E+00  0.00000000E+00  0.00000000E+00
  0.00000000E+00  0.00000000E+00  0.00000000E+00
  0.00000000E+00  0.00000000E+00  0.00000000E+00
  0.00000000E+00  0.00000000E+00  0.00000000E+00
  0.00000000E+00  0.00000000E+00  0.00000000E+00
  0.00000000E+00  0.00000000E+00  0.00000000E+00
  0.00000000E+00  0.00000000E+00  0.00000000E+00
  0.00000000E+00  0.00000000E+00  0.00000000E+00
  0.00000000E+00  0.00000000E+00  0.00000000E+00
  0.00000000E+00  0.00000000E+00  0.00000000E+00
  0.00000000E+00  0.00000000E+00  0.00000000E+00
  0.00000000E+00  0.00000000E+00  0.00000000E+00
  0.00000000E+00  0.00000000E+00  0.00000000E+00
  0.00000000E+00  0.00000000E+00  0.00000000E+00
  0.00000000E+00  0.00000000E+00  0.00000000E+00
  0.00000000E+00  0.00000000E+00  0.00000000E+00
  0.00000000E+00  0.00000000E+00  0.00000000E+00
  0.00000000E+00  0.00000000E+00  0.00000000E+00
  0.00000000E+00  0.00000000E+00  0.00000000E+00
  0.00000000E+00  0.00000000E+00  0.00000000E+00
  0.00000000E+00  0.00000000E+00  0.00000000E+00
  0.00000000E+00  0.00000000E+00  0.00000000E+00
  0.00000000E+00  0.00000000E+00  0.00000000E+00
