0.0% N(Distort)=3 ~[0.2,0.2,0.2]        
   1.0000000000000000     
    11.9929539999999992    0.0000000000000000    0.0000000000000000
     0.0000000000000000   11.9929539999999992    0.0000000000000000
     0.0000000000000000    0.0000000000000000   11.9929539999999992
   Cs   Pb   Br
     8     7    25
Direct
 -0.0059052100386983 -0.0123936897972688  0.0115439694607781
  0.9936393438006884  0.9808014893799144  0.5264037203131631
  0.0232768344569484  0.4634077042367076  0.0229020772376118
  0.0147428117076528  0.4850249555330489  0.5119880235640915
  0.4998086948853911  0.0271821282044736  0.9797766323544572
  0.5135417632137107  0.0411267688270721  0.4904280746892788
  0.4982483775823154  0.5278522605326160 -0.0182968913965159
  0.4910087476658760  0.5164630456817966  0.4586660770077040
  0.2539119633202467  0.2538601321015626  0.7443747417443245
  0.2541387381834465  0.7424850877275174  0.2412365554729977
  0.2562088399296116  0.7535504032304414  0.7440838078301529
  0.7683171142455727  0.2573103950491191  0.2543596936870571
  0.7545275965308273  0.2582260208897070  0.7517963002185748
  0.7510878164368020  0.7537775045337481  0.2488492429458140
  0.7536708908523521  0.7504590333589709  0.7492516632499294
  0.3341866510071029  0.1219921061241431  0.2441058665112003
  0.2189227154782527  0.2107032685896323  0.9766342545346923
  0.2825339041745777  0.2913352028188639  0.5106128964150364
  0.2916007597630652  0.7912121577747664 -0.0068970541255479
  0.2207984073001320  0.7179917958152878  0.4961178499668456
  0.7852606114365850  0.2192691367340326 -0.0001677991786040
  0.7182769905488763  0.2937878793419325  0.5025707370167156
  0.7155258826933958  0.7944134075119870 -0.0003477026357808
  0.7915765358578789  0.7178098531043808  0.5002801397248908
  0.1647555460943801 -0.0053009773337895  0.2711559486535060
  0.2825808179597709  0.0039371824795915  0.7039645667199401
  0.2847621202122170  0.5118555906425269  0.2106864844827643
  0.2275172255411823  0.5032029756332869  0.7844139630913094
  0.7818844746886696  0.0067096936093401  0.2904197441249284
  0.7284547636517540  0.0052146716747970  0.7171932130854693
  0.7109207404900861  0.5077070852527498  0.2160402827128726
  0.7863080267547276  0.5045889001354462  0.7967796539843360
 -0.0030931562389272  0.2921301244089241  0.2762161216934838
  0.0027408054086023  0.2359872058868002  0.7093197200901438
  0.0003074358933753  0.7241716877584374  0.2048929950537092
  0.0054790323069433  0.7863571872555853  0.7735952650791228
  0.5012911793475906  0.2519159712018778  0.2137135119296910
  0.5027869446270696  0.2740621136229534  0.7837779706442104
  0.5021913338600099  0.7897349370511551  0.2893020080753360
  0.5052386778070248  0.7142375312804400  0.7163337883057206

  0.00000000E+00  0.00000000E+00  0.00000000E+00
  0.00000000E+00  0.00000000E+00  0.00000000E+00
  0.00000000E+00  0.00000000E+00  0.00000000E+00
  0.00000000E+00  0.00000000E+00  0.00000000E+00
  0.00000000E+00  0.00000000E+00  0.00000000E+00
  0.00000000E+00  0.00000000E+00  0.00000000E+00
  0.00000000E+00  0.00000000E+00  0.00000000E+00
  0.00000000E+00  0.00000000E+00  0.00000000E+00
  0.00000000E+00  0.00000000E+00  0.00000000E+00
  0.00000000E+00  0.00000000E+00  0.00000000E+00
  0.00000000E+00  0.00000000E+00  0.00000000E+00
  0.00000000E+00  0.00000000E+00  0.00000000E+00
  0.00000000E+00  0.00000000E+00  0.00000000E+00
  0.00000000E+00  0.00000000E+00  0.00000000E+00
  0.00000000E+00  0.00000000E+00  0.00000000E+00
  0.00000000E+00  0.00000000E+00  0.00000000E+00
  0.00000000E+00  0.00000000E+00  0.00000000E+00
  0.00000000E+00  0.00000000E+00  0.00000000E+00
  0.00000000E+00  0.00000000E+00  0.00000000E+00
  0.00000000E+00  0.00000000E+00  0.00000000E+00
  0.00000000E+00  0.00000000E+00  0.00000000E+00
  0.00000000E+00  0.00000000E+00  0.00000000E+00
  0.00000000E+00  0.00000000E+00  0.00000000E+00
  0.00000000E+00  0.00000000E+00  0.00000000E+00
  0.00000000E+00  0.00000000E+00  0.00000000E+00
  0.00000000E+00  0.00000000E+00  0.00000000E+00
  0.00000000E+00  0.00000000E+00  0.00000000E+00
  0.00000000E+00  0.00000000E+00  0.00000000E+00
  0.00000000E+00  0.00000000E+00  0.00000000E+00
  0.00000000E+00  0.00000000E+00  0.00000000E+00
  0.00000000E+00  0.00000000E+00  0.00000000E+00
  0.00000000E+00  0.00000000E+00  0.00000000E+00
  0.00000000E+00  0.00000000E+00  0.00000000E+00
  0.00000000E+00  0.00000000E+00  0.00000000E+00
  0.00000000E+00  0.00000000E+00  0.00000000E+00
  0.00000000E+00  0.00000000E+00  0.00000000E+00
  0.00000000E+00  0.00000000E+00  0.00000000E+00
  0.00000000E+00  0.00000000E+00  0.00000000E+00
  0.00000000E+00  0.00000000E+00  0.00000000E+00
  0.00000000E+00  0.00000000E+00  0.00000000E+00
