40.0% N(Distort)=2 ~[0.2,0.5,0.5]       
   1.0000000000000000     
    11.9929539999999992    0.0000000000000000    0.0000000000000000
     0.0000000000000000   11.9929539999999992    0.0000000000000000
     0.0000000000000000    0.0000000000000000   11.9929539999999992
   Cs   Pb   Br
     8     9    24
Direct
  0.9795509948786849 -0.0054169068010085 -0.0007689698972608
  0.0226885043446176  0.9958759243931049  0.4709756816612187
  0.9625643170302278  0.5057454047827789  0.9898215470516838
  0.0116387759452199  0.5341297662122481  0.4732363531681607
  0.5132739705217960  0.9818862501871692  0.0108666348690190
  0.5649415436880730  0.0195471658747273  0.4982965615724571
  0.4900086905381072  0.4828133530817786  0.0084722151820178
  0.5259117653817131  0.5580191024574143  0.4964922954529642
  0.2276446749285955  0.3267796872540609  0.6380310499803339
  0.2572263918178919  0.2477342663312076  0.2479777820434202
  0.2914853897984271  0.1709132552599426  0.8399027287064497
  0.2651917632617149  0.7537396454606627  0.2410339057160480
  0.2562842235980651  0.7557446112020925  0.7447239150252942
  0.7576381948912329  0.2627041324417452  0.2458234949241606
  0.7609074707303548  0.2642222549124628  0.7401058057853127
  0.7610466927626319  0.7603224560120672  0.2418331380236479
  0.7602336408060016  0.7614788541248440  0.7428484181003641
  0.2084580732116474  0.3294215118884653  0.0122081538471126
  0.2934577247556135  0.1448820101002632  0.4763319740845667
  0.3056577353658526  0.7368532203000873  0.9963227436867640
  0.2322406187413574  0.7630986059111842  0.4947457495165505
  0.7942561266177528  0.2430282884724572  0.9941090629446947
  0.7109697526789284  0.2964731969329723  0.4916740458152842
  0.7501229527961512  0.7865727427796158  0.9921760093200847
  0.7831754774656203  0.7424476786994348  0.4913875952842140
  0.2258254847494542  0.0105003016943177  0.1813839334722316
  0.1527297059134977  0.9874731749038054  0.7492366433592864
  0.3002983332166115  0.5107136787564431  0.2833070027709338
  0.3460045365043379  0.5200789097585379  0.7411343511018745
  0.7881467457540160  0.0104672346492375  0.2631464678326896
  0.8105050019281094  0.0137419693667595  0.7106028679392208
  0.7282083047246611  0.5121245637879008  0.2176356796528913
  0.7067187906477274  0.5155642389499877  0.7744609988435053
  0.0074921946135749  0.2771505153191474  0.2989602698156656
  0.9972847889384836  0.3362746457355695  0.7188965073961018
  0.0112505811781981  0.7290307186038498  0.2161851605523190
  0.0123048778506989  0.6938779614526713  0.7567297415977938
  0.5092686742580704  0.2278475157938352  0.1995564985070594
  0.5251041994590536  0.1979761887099983  0.7654874339106654
  0.5129782237152326  0.7982821419455084  0.2755555493211743
  0.5149084654985825  0.8149067954241719  0.7207657861515059

  0.00000000E+00  0.00000000E+00  0.00000000E+00
  0.00000000E+00  0.00000000E+00  0.00000000E+00
  0.00000000E+00  0.00000000E+00  0.00000000E+00
  0.00000000E+00  0.00000000E+00  0.00000000E+00
  0.00000000E+00  0.00000000E+00  0.00000000E+00
  0.00000000E+00  0.00000000E+00  0.00000000E+00
  0.00000000E+00  0.00000000E+00  0.00000000E+00
  0.00000000E+00  0.00000000E+00  0.00000000E+00
  0.00000000E+00  0.00000000E+00  0.00000000E+00
  0.00000000E+00  0.00000000E+00  0.00000000E+00
  0.00000000E+00  0.00000000E+00  0.00000000E+00
  0.00000000E+00  0.00000000E+00  0.00000000E+00
  0.00000000E+00  0.00000000E+00  0.00000000E+00
  0.00000000E+00  0.00000000E+00  0.00000000E+00
  0.00000000E+00  0.00000000E+00  0.00000000E+00
  0.00000000E+00  0.00000000E+00  0.00000000E+00
  0.00000000E+00  0.00000000E+00  0.00000000E+00
  0.00000000E+00  0.00000000E+00  0.00000000E+00
  0.00000000E+00  0.00000000E+00  0.00000000E+00
  0.00000000E+00  0.00000000E+00  0.00000000E+00
  0.00000000E+00  0.00000000E+00  0.00000000E+00
  0.00000000E+00  0.00000000E+00  0.00000000E+00
  0.00000000E+00  0.00000000E+00  0.00000000E+00
  0.00000000E+00  0.00000000E+00  0.00000000E+00
  0.00000000E+00  0.00000000E+00  0.00000000E+00
  0.00000000E+00  0.00000000E+00  0.00000000E+00
  0.00000000E+00  0.00000000E+00  0.00000000E+00
  0.00000000E+00  0.00000000E+00  0.00000000E+00
  0.00000000E+00  0.00000000E+00  0.00000000E+00
  0.00000000E+00  0.00000000E+00  0.00000000E+00
  0.00000000E+00  0.00000000E+00  0.00000000E+00
  0.00000000E+00  0.00000000E+00  0.00000000E+00
  0.00000000E+00  0.00000000E+00  0.00000000E+00
  0.00000000E+00  0.00000000E+00  0.00000000E+00
  0.00000000E+00  0.00000000E+00  0.00000000E+00
  0.00000000E+00  0.00000000E+00  0.00000000E+00
  0.00000000E+00  0.00000000E+00  0.00000000E+00
  0.00000000E+00  0.00000000E+00  0.00000000E+00
  0.00000000E+00  0.00000000E+00  0.00000000E+00
  0.00000000E+00  0.00000000E+00  0.00000000E+00
  0.00000000E+00  0.00000000E+00  0.00000000E+00
