-10.0% N(Distort)=1 ~[0.4,0.4,0.4]      
   1.0000000000000000     
    11.9929539999999992    0.0000000000000000    0.0000000000000000
     0.0000000000000000   11.9929539999999992    0.0000000000000000
     0.0000000000000000    0.0000000000000000   11.9929539999999992
   Cs   Pb   Br
     9     8    24
Direct
  0.2758229256546492  0.4076091469344834  0.3271446958335191
  0.9950066476938070  0.9827988202443015  0.9382613089987818
  0.0287534721887536  0.0190900555569005  0.5204271992560635
  0.9831439061633973  0.4962214010141884  0.9994897399482894
  0.9675332751611766  0.4826378861565502  0.5366015203524306
  0.5560734623668901  0.0095290994824157  0.9895777799749689
  0.5162284248211245  0.9874302595990593  0.4895138495487172
  0.5167245104116297  0.5077540717346599  0.0097395794326081
  0.5465943813934985  0.5193858804967150  0.5379687284106462
  0.1857207494969200  0.1477453727345884  0.1644137968849099
  0.2667375410965142  0.2533568619697216  0.7538909165240347
  0.2461056292853197  0.7668093163393173  0.2451807802036406
  0.2640538730490372  0.7497634232540249  0.7480884192082246
  0.7489303421786854  0.2532994794592262  0.2484288980790789
  0.7574153770043104  0.2481877406323304  0.7551193086835556
  0.8356363026094180  0.7616805883663859  0.2526070160428875
  0.7655118031584904  0.7506382257380847  0.7493851110774598
  0.2391149598792143  0.3342549133743908  0.0111478552326422
  0.2918290107808588  0.1885798439371037  0.5245686088230825
  0.2436400155154904  0.6962806788476371  0.9950009755691614
  0.2588652269348302  0.8103187601941996  0.5009486023924897
  0.8051897609992790  0.2187464339199584  0.0020231155521627
  0.7228804578176627  0.2720909714625179  0.5067890698136508
  0.7799428303367667  0.7646540817177719  0.0025909260939429
  0.7691388882615170  0.7292568941606690  0.4976806667169157
  0.3662236670359860  0.9759785172322263  0.2125599137932932
  0.2702903700096571  0.9973069004647651  0.8089621061752205
  0.0476322304460936  0.6035928730944232  0.2778306547912840
  0.2634339431909696  0.4964429838583803  0.6675610899272707
  0.7168398978200957  0.9800233474392922  0.2633204968933132
  0.7572591713739083  0.9991833002124704  0.7228712596676874
  0.7526626417473357  0.4973876203983791  0.2198559461147234
  0.7611901637960886  0.4997287573926714  0.7747477900315675
  0.0087547251224956  0.2561978857616214  0.3065105746087755
  0.0117245555420355  0.2445053795029825  0.7344615810654614
  0.0269726045761032  0.9171909719304923  0.2327167128802593
  0.0133181576669833  0.7457825017449867  0.7353585240803920
  0.5132538838608093  0.2623373880523539  0.2043405320397768
  0.5140969333495420  0.2631441439405854  0.8022132055666248
  0.4527753323215140  0.6407404291515405  0.2766851128986962
  0.5156041728065964  0.7457572100176114  0.7575257828408105

  0.00000000E+00  0.00000000E+00  0.00000000E+00
  0.00000000E+00  0.00000000E+00  0.00000000E+00
  0.00000000E+00  0.00000000E+00  0.00000000E+00
  0.00000000E+00  0.00000000E+00  0.00000000E+00
  0.00000000E+00  0.00000000E+00  0.00000000E+00
  0.00000000E+00  0.00000000E+00  0.00000000E+00
  0.00000000E+00  0.00000000E+00  0.00000000E+00
  0.00000000E+00  0.00000000E+00  0.00000000E+00
  0.00000000E+00  0.00000000E+00  0.00000000E+00
  0.00000000E+00  0.00000000E+00  0.00000000E+00
  0.00000000E+00  0.00000000E+00  0.00000000E+00
  0.00000000E+00  0.00000000E+00  0.00000000E+00
  0.00000000E+00  0.00000000E+00  0.00000000E+00
  0.00000000E+00  0.00000000E+00  0.00000000E+00
  0.00000000E+00  0.00000000E+00  0.00000000E+00
  0.00000000E+00  0.00000000E+00  0.00000000E+00
  0.00000000E+00  0.00000000E+00  0.00000000E+00
  0.00000000E+00  0.00000000E+00  0.00000000E+00
  0.00000000E+00  0.00000000E+00  0.00000000E+00
  0.00000000E+00  0.00000000E+00  0.00000000E+00
  0.00000000E+00  0.00000000E+00  0.00000000E+00
  0.00000000E+00  0.00000000E+00  0.00000000E+00
  0.00000000E+00  0.00000000E+00  0.00000000E+00
  0.00000000E+00  0.00000000E+00  0.00000000E+00
  0.00000000E+00  0.00000000E+00  0.00000000E+00
  0.00000000E+00  0.00000000E+00  0.00000000E+00
  0.00000000E+00  0.00000000E+00  0.00000000E+00
  0.00000000E+00  0.00000000E+00  0.00000000E+00
  0.00000000E+00  0.00000000E+00  0.00000000E+00
  0.00000000E+00  0.00000000E+00  0.00000000E+00
  0.00000000E+00  0.00000000E+00  0.00000000E+00
  0.00000000E+00  0.00000000E+00  0.00000000E+00
  0.00000000E+00  0.00000000E+00  0.00000000E+00
  0.00000000E+00  0.00000000E+00  0.00000000E+00
  0.00000000E+00  0.00000000E+00  0.00000000E+00
  0.00000000E+00  0.00000000E+00  0.00000000E+00
  0.00000000E+00  0.00000000E+00  0.00000000E+00
  0.00000000E+00  0.00000000E+00  0.00000000E+00
  0.00000000E+00  0.00000000E+00  0.00000000E+00
  0.00000000E+00  0.00000000E+00  0.00000000E+00
  0.00000000E+00  0.00000000E+00  0.00000000E+00
