-30.0% N(Distort)=1 ~[0.2,0.2,0.2]      
   1.0000000000000000     
    11.9929539999999992    0.0000000000000000    0.0000000000000000
     0.0000000000000000   11.9929539999999992    0.0000000000000000
     0.0000000000000000    0.0000000000000000   11.9929539999999992
   Cs   Pb   Br
     9     7    24
Direct
  0.0083705421748379  0.9709163542277690  0.0027850330158705
  0.9955484794061525  0.9728603896962487  0.5263028813623704
 -0.0014847553343278  0.4860387981706091  0.0314715040229705
 -0.0010203672906450  0.4647166581265447  0.5307705358667943
  0.5076615780252025  0.0291626579444612  0.9661870997680017
  0.4942062500851417  0.0154186594287616  0.4608398885639154
  0.5128231610910663  0.5266562784336384  0.9778171237253369
  0.5059928091115404  0.5391921994021189  0.4993655315775510
  0.2540831881670953  0.2534785556861227  0.2467201878378144
  0.2552256303864656  0.2479847727893792  0.7473610886897255
  0.2497066459905975  0.7501262008359018  0.2479170557739665
  0.2522289444305957  0.7470472504316005  0.7489930523100422
  0.7514263700082204  0.2512035492805638  0.2494993410923617
  0.7536935209967200  0.2479874981607635  0.7486375559706133
  0.7517928399986020  0.7524034191741962  0.2498525499806218
  0.7532791853208445  0.7495199626803930  0.7493940074643709
  0.3233067082119138  0.2951935101458068  0.9752367997735178
  0.1968803811605181  0.1936064548387434  0.5179923247892796
  0.2269645113611329  0.6986539486655614  0.9958917566770273
  0.2763880319826908  0.7943444905275656  0.4989795800000604
  0.7020240560015285  0.2823396485945540 -0.0024093842914509
  0.8065477973468478  0.2169472432693488  0.5014335992214189
  0.7789097509917399  0.7180656782833872 -0.0006809007162269
  0.7237396137715375  0.7866769130182366  0.5003063171501178
  0.3061065691766027  0.9788172769965713  0.1870168132880750
  0.2339949087078280  0.9949253834765260  0.7938895818744665
  0.1790631986738086  0.5231915966035486  0.2966677966356852
  0.2735363638942097  0.4980471828602021  0.6992104175933905
  0.7024550843032165  0.0009932569561320  0.2194961942737934
  0.7823747675938851 -0.0016239739841781  0.7841912151068544
  0.7964301547293340  0.5041043286573004  0.2795510237578433
  0.7284753145112844  0.4993427753177004  0.7176642835235956
  0.9801785410799896  0.2136854623347471  0.1765487351635122
  0.0045848423106275  0.2777978361837760  0.7941826916307715
 -0.0015849224566321  0.8082024811253227  0.2629655115931941
  0.0022977395023691  0.7258293415179264  0.7213353972874323
  0.5246115112262719  0.2935345810628621  0.3282642620706032
  0.5077701481277861  0.2141310431180669  0.7020664461696230
  0.5015842028580222  0.6998134078796863  0.2363058410732714
  0.5031007569987103  0.7660739873356019  0.7752444461525445

  0.00000000E+00  0.00000000E+00  0.00000000E+00
  0.00000000E+00  0.00000000E+00  0.00000000E+00
  0.00000000E+00  0.00000000E+00  0.00000000E+00
  0.00000000E+00  0.00000000E+00  0.00000000E+00
  0.00000000E+00  0.00000000E+00  0.00000000E+00
  0.00000000E+00  0.00000000E+00  0.00000000E+00
  0.00000000E+00  0.00000000E+00  0.00000000E+00
  0.00000000E+00  0.00000000E+00  0.00000000E+00
  0.00000000E+00  0.00000000E+00  0.00000000E+00
  0.00000000E+00  0.00000000E+00  0.00000000E+00
  0.00000000E+00  0.00000000E+00  0.00000000E+00
  0.00000000E+00  0.00000000E+00  0.00000000E+00
  0.00000000E+00  0.00000000E+00  0.00000000E+00
  0.00000000E+00  0.00000000E+00  0.00000000E+00
  0.00000000E+00  0.00000000E+00  0.00000000E+00
  0.00000000E+00  0.00000000E+00  0.00000000E+00
  0.00000000E+00  0.00000000E+00  0.00000000E+00
  0.00000000E+00  0.00000000E+00  0.00000000E+00
  0.00000000E+00  0.00000000E+00  0.00000000E+00
  0.00000000E+00  0.00000000E+00  0.00000000E+00
  0.00000000E+00  0.00000000E+00  0.00000000E+00
  0.00000000E+00  0.00000000E+00  0.00000000E+00
  0.00000000E+00  0.00000000E+00  0.00000000E+00
  0.00000000E+00  0.00000000E+00  0.00000000E+00
  0.00000000E+00  0.00000000E+00  0.00000000E+00
  0.00000000E+00  0.00000000E+00  0.00000000E+00
  0.00000000E+00  0.00000000E+00  0.00000000E+00
  0.00000000E+00  0.00000000E+00  0.00000000E+00
  0.00000000E+00  0.00000000E+00  0.00000000E+00
  0.00000000E+00  0.00000000E+00  0.00000000E+00
  0.00000000E+00  0.00000000E+00  0.00000000E+00
  0.00000000E+00  0.00000000E+00  0.00000000E+00
  0.00000000E+00  0.00000000E+00  0.00000000E+00
  0.00000000E+00  0.00000000E+00  0.00000000E+00
  0.00000000E+00  0.00000000E+00  0.00000000E+00
  0.00000000E+00  0.00000000E+00  0.00000000E+00
  0.00000000E+00  0.00000000E+00  0.00000000E+00
  0.00000000E+00  0.00000000E+00  0.00000000E+00
  0.00000000E+00  0.00000000E+00  0.00000000E+00
  0.00000000E+00  0.00000000E+00  0.00000000E+00
