10.0% N(Distort)=1 ~[0.5,0.5,0.5]       
   1.0000000000000000     
    11.9929539999999992    0.0000000000000000    0.0000000000000000
     0.0000000000000000   11.9929539999999992    0.0000000000000000
     0.0000000000000000    0.0000000000000000   11.9929539999999992
   Cs   Pb   Br
     7     8    24
Direct
  0.9874747121827726  0.0012871173293471  0.0254050511991954
  0.9842156641207169  0.0007867964791416  0.5131782043270794
  0.0057729719719744  0.5027138759932528  0.9766103310707859
  0.0337664426300236  0.5005125448106330  0.4824930537172031
  0.4845438920106369  0.0003222078751882  0.0151671112763453
  0.4868489694816812  0.0016263205852525  0.5219283551311936
  0.5221386156866644  0.5010893667346848  0.9819931635086792
  0.2571394137394940  0.2521395962073399  0.2484514589655226
  0.2538348963085127  0.2513109358586483  0.7481025780384407
  0.2564756541038282  0.7490505134759652  0.2478601515784882
  0.2536110614913706  0.7493742743222167  0.7475007285788421
  0.7533188403524622  0.2534401408481156  0.2505323272107318
  0.7528651523333612  0.2510101746792910  0.7470290801781320
  0.7527028211032192  0.7495590048829769  0.2504584033976235
  0.7524824415278213  0.7511554195357961  0.7464423229275817
  0.2207916430852954  0.2190147890527121  0.9978324405998594
  0.2769079177066683  0.2683859343854036  0.4981378425606460
  0.2177622412434910  0.7801148165670116  0.9973583460078292
  0.2759550234756415  0.7331844303576280  0.4973845741792508
  0.7902779535320809  0.2703308180142329 -0.0004480577840829
  0.7310809100390272  0.2124866704860817  0.4997809075287080
  0.7890613437594411  0.7339142113505706 -0.0007874403101666
  0.7294247430364943  0.7912603980781604  0.4995200950144268
  0.2876275638651700  0.0009597579335013  0.2676996586413488
  0.2308152432741672  0.0006934636595350  0.7201272648349165
  0.2162168461068731  0.5007527665247465  0.2189345892247351
  0.2673014231747232  0.5007212369527724  0.7888892546181021
  0.7320467388832292  0.0012848789883766  0.2184419274517889
  0.7882867146774795  0.0012576805910855  0.7735699764672934
  0.7958014710229412  0.5012541673274333  0.2643319761029308
  0.7352044384372608  0.5013987390158918  0.7471498363968507
  0.0047244125024026  0.2177743723347259  0.2782831975141413
  0.0040681141137695  0.2787777361774675  0.7150449513638272
  0.0037308647781643  0.7833227959013469  0.2779071392212251
  0.0034201030054302  0.7220096218261662  0.7142686047297512
  0.5046130446092617  0.2708219470329430  0.2011230871241813
  0.5042364985530979  0.2187097112036069  0.7836439918118790
  0.5035151693086999  0.7314110618823975  0.2002980845788230
  0.5032173420493001  0.7821920226437502  0.7836206178366025

  0.00000000E+00  0.00000000E+00  0.00000000E+00
  0.00000000E+00  0.00000000E+00  0.00000000E+00
  0.00000000E+00  0.00000000E+00  0.00000000E+00
  0.00000000E+00  0.00000000E+00  0.00000000E+00
  0.00000000E+00  0.00000000E+00  0.00000000E+00
  0.00000000E+00  0.00000000E+00  0.00000000E+00
  0.00000000E+00  0.00000000E+00  0.00000000E+00
  0.00000000E+00  0.00000000E+00  0.00000000E+00
  0.00000000E+00  0.00000000E+00  0.00000000E+00
  0.00000000E+00  0.00000000E+00  0.00000000E+00
  0.00000000E+00  0.00000000E+00  0.00000000E+00
  0.00000000E+00  0.00000000E+00  0.00000000E+00
  0.00000000E+00  0.00000000E+00  0.00000000E+00
  0.00000000E+00  0.00000000E+00  0.00000000E+00
  0.00000000E+00  0.00000000E+00  0.00000000E+00
  0.00000000E+00  0.00000000E+00  0.00000000E+00
  0.00000000E+00  0.00000000E+00  0.00000000E+00
  0.00000000E+00  0.00000000E+00  0.00000000E+00
  0.00000000E+00  0.00000000E+00  0.00000000E+00
  0.00000000E+00  0.00000000E+00  0.00000000E+00
  0.00000000E+00  0.00000000E+00  0.00000000E+00
  0.00000000E+00  0.00000000E+00  0.00000000E+00
  0.00000000E+00  0.00000000E+00  0.00000000E+00
  0.00000000E+00  0.00000000E+00  0.00000000E+00
  0.00000000E+00  0.00000000E+00  0.00000000E+00
  0.00000000E+00  0.00000000E+00  0.00000000E+00
  0.00000000E+00  0.00000000E+00  0.00000000E+00
  0.00000000E+00  0.00000000E+00  0.00000000E+00
  0.00000000E+00  0.00000000E+00  0.00000000E+00
  0.00000000E+00  0.00000000E+00  0.00000000E+00
  0.00000000E+00  0.00000000E+00  0.00000000E+00
  0.00000000E+00  0.00000000E+00  0.00000000E+00
  0.00000000E+00  0.00000000E+00  0.00000000E+00
  0.00000000E+00  0.00000000E+00  0.00000000E+00
  0.00000000E+00  0.00000000E+00  0.00000000E+00
  0.00000000E+00  0.00000000E+00  0.00000000E+00
  0.00000000E+00  0.00000000E+00  0.00000000E+00
  0.00000000E+00  0.00000000E+00  0.00000000E+00
  0.00000000E+00  0.00000000E+00  0.00000000E+00
