30.0% N(Distort)=1 ~[0.5,0.5,0.5]       
   1.0000000000000000     
    11.9929539999999992    0.0000000000000000    0.0000000000000000
     0.0000000000000000   11.9929539999999992    0.0000000000000000
     0.0000000000000000    0.0000000000000000   11.9929539999999992
   Cs   Pb   Br
     7     9    24
Direct
  0.0093609785731278  0.9706324098258480  0.0158858297780692
  0.0179543389988539  0.9880467946300316  0.5370570048811693
  0.0123983515359354  0.4861575812241448  0.9971336024900778
  0.0292853246286704  0.4703951082175563  0.5186746882647386
  0.4959335556680624  0.0323845834939735  0.9751154363992900
  0.4906178371183655  0.0299765512182995  0.4556146847126495
  0.5044979166567113  0.5241524948808011  0.9921336962762566
  0.5825372159297501  0.5760979811569497  0.5162275916862086
  0.2520423545786686  0.2540599712076084  0.2389202301864754
  0.2607211627444870  0.2511059896959771  0.7409265206534631
  0.2539317906433509  0.7488920597245270  0.2550173197092255
  0.2503152850324638  0.7464013415529248  0.7473887015652837
  0.7507923658958722  0.2462556968022149  0.2398156952791475
  0.7554386849455023  0.2314034059252721  0.7405662566085385
  0.7586608635302765  0.7586945353052256  0.2528538936607866
  0.7378220377323129  0.7505852967810861  0.7141572084015175
  0.2893104319522254  0.2928585470772684  0.9881517952994366
  0.2236587193207186  0.2147843135386059  0.4887258202245488
  0.2326608771646638  0.7140227850114087  0.0013574028636604
  0.2760730850721141  0.8001938445140822  0.5023330427121707
  0.7268678338440479  0.3006404567678090 -0.0035222635942120
  0.7917249616005019  0.2058448467955940  0.4952191777995643
  0.7754223783351528  0.6924145774201331  0.0191265042571487
  0.7444309088709640  0.8608053233414213  0.4951344546562649
  0.2859604246872940  0.0004621016200379  0.2050596203916385
  0.2207384922286242  0.0016286338285802  0.7869122592072418
  0.2023954034143797  0.5016678542157569  0.2662926093516620
  0.3000086333703367  0.5020959724378496  0.7019312859903005
  0.7196054497149954  0.0106425930639974  0.1908908715924621
  0.7854390759328592 -0.0093211308244440  0.8002128798291392
  0.7647352689455215  0.5260047884819046  0.3617037469171493
  0.7119085229338109  0.4851523057641315  0.7055878253439188
  0.0015881713526834  0.2320194184894751  0.1957354675394676
  0.0083910187630674  0.2809516961574374  0.7627800798005370
  0.0080184961367312  0.7947058034683637  0.2765991260397232
  0.0004833595956778  0.7109597908017914  0.7187232964858465
  0.5032055654179147  0.2786053301102733  0.2640557447256687
  0.5075602606725392  0.1952805106177242  0.7162859362339711
  0.5091106853242769  0.7041244041444130  0.2783323154421974
  0.5016642128860123  0.7756187378841984  0.7901478271582748

  0.00000000E+00  0.00000000E+00  0.00000000E+00
  0.00000000E+00  0.00000000E+00  0.00000000E+00
  0.00000000E+00  0.00000000E+00  0.00000000E+00
  0.00000000E+00  0.00000000E+00  0.00000000E+00
  0.00000000E+00  0.00000000E+00  0.00000000E+00
  0.00000000E+00  0.00000000E+00  0.00000000E+00
  0.00000000E+00  0.00000000E+00  0.00000000E+00
  0.00000000E+00  0.00000000E+00  0.00000000E+00
  0.00000000E+00  0.00000000E+00  0.00000000E+00
  0.00000000E+00  0.00000000E+00  0.00000000E+00
  0.00000000E+00  0.00000000E+00  0.00000000E+00
  0.00000000E+00  0.00000000E+00  0.00000000E+00
  0.00000000E+00  0.00000000E+00  0.00000000E+00
  0.00000000E+00  0.00000000E+00  0.00000000E+00
  0.00000000E+00  0.00000000E+00  0.00000000E+00
  0.00000000E+00  0.00000000E+00  0.00000000E+00
  0.00000000E+00  0.00000000E+00  0.00000000E+00
  0.00000000E+00  0.00000000E+00  0.00000000E+00
  0.00000000E+00  0.00000000E+00  0.00000000E+00
  0.00000000E+00  0.00000000E+00  0.00000000E+00
  0.00000000E+00  0.00000000E+00  0.00000000E+00
  0.00000000E+00  0.00000000E+00  0.00000000E+00
  0.00000000E+00  0.00000000E+00  0.00000000E+00
  0.00000000E+00  0.00000000E+00  0.00000000E+00
  0.00000000E+00  0.00000000E+00  0.00000000E+00
  0.00000000E+00  0.00000000E+00  0.00000000E+00
  0.00000000E+00  0.00000000E+00  0.00000000E+00
  0.00000000E+00  0.00000000E+00  0.00000000E+00
  0.00000000E+00  0.00000000E+00  0.00000000E+00
  0.00000000E+00  0.00000000E+00  0.00000000E+00
  0.00000000E+00  0.00000000E+00  0.00000000E+00
  0.00000000E+00  0.00000000E+00  0.00000000E+00
  0.00000000E+00  0.00000000E+00  0.00000000E+00
  0.00000000E+00  0.00000000E+00  0.00000000E+00
  0.00000000E+00  0.00000000E+00  0.00000000E+00
  0.00000000E+00  0.00000000E+00  0.00000000E+00
  0.00000000E+00  0.00000000E+00  0.00000000E+00
  0.00000000E+00  0.00000000E+00  0.00000000E+00
  0.00000000E+00  0.00000000E+00  0.00000000E+00
  0.00000000E+00  0.00000000E+00  0.00000000E+00
