20.0% N(Distort)=3 ~[0.2,0.2,0.5]       
   1.0000000000000000     
    11.9929539999999992    0.0000000000000000    0.0000000000000000
     0.0000000000000000   11.9929539999999992    0.0000000000000000
     0.0000000000000000    0.0000000000000000   11.9929539999999992
   Cs   Pb   Br
     8     9    23
Direct
  0.0120999956157720  0.0698849206292959  0.9418890188333027
  0.9779457105522283  0.9761499199745313  0.5114521127259468
  0.0225217644263001  0.4352343426059481  0.1064059807985928
  0.9812262836501464  0.5593160868356356  0.5428512851181081
  0.5092231782737403  0.0653460218919242  0.9693246886159177
  0.5234117473828194  0.0157956110867600  0.5553725790731089
  0.5118143165101089  0.4803377189907173  0.9872033700828182
  0.5170066154117049  0.5512606598518467  0.4948368781508557
  0.2647562677175526  0.1311990327872153  0.2550788024289242
  0.2507549101594461  0.3238601425523287  0.7294650443081643
  0.2534463632966991  0.7359077354348986  0.2254133840982157
  0.2513241363776523  0.7697794467047766  0.8283298496644931
  0.7564842835555645  0.2339588098465722  0.2643602357663118
  0.7585623748015279  0.2917636218952436  0.7520875805727210
  0.7553568003668037  0.7273908580628277  0.2295597392936192
  0.7586907864153503  0.7775243896517335  0.8447397246146798
  0.2208077891444527  0.2788348449774703  0.4741301266730664
  0.2745492976517553  0.2657950149002340  0.0472650051639860
  0.2377822967281385  0.6028619940841565 -0.0046670149676374
  0.2715179929715736  0.9100099050467415  0.3997689449855725
  0.7454001662398604  0.2720472734648524  0.0077253443118573
  0.7750846093685922  0.2134710658513005  0.5075140438613588
  0.7906450377458586  0.6026390565203680  0.0109972014338691
  0.7277411172719901  0.7984952648197199  0.4683704256770381
  0.2512182971683871  0.9146743960703168  0.0538396961028989
  0.2253478871202901  0.0797058119890190  0.6904652313095827
  0.2306260614482196  0.4907365705333879  0.3496622722584179
  0.2675053691293252  0.5842595709073239  0.6716540423564729
  0.7622149584627618  0.9132076191821945  0.0603893207160482
  0.7607505744843006  0.0301293278991162  0.7613483146555095
  0.7702266994833927  0.4714477268312464  0.3093450245144240
  0.7261337321939678  0.5389734554766882  0.7122250008289563
  0.9935619597062246  0.1527814845014567  0.2416433802882244
  0.0035255328079978  0.3416957695100933  0.7868352776008899
  0.0032127669371712  0.7326620256010071  0.2770212411746841
  0.0012871966200480  0.7922875149054855  0.7712297226278108
  0.5190064698808182  0.1507391908225466  0.2712086782878923
  0.5075411169732421  0.2811381701251888  0.7386612630506333
  0.5013171221641906  0.6888819446208518  0.2172589481938100
  0.5023355455084746  0.7951066763990319  0.8125445798300213

  0.00000000E+00  0.00000000E+00  0.00000000E+00
  0.00000000E+00  0.00000000E+00  0.00000000E+00
  0.00000000E+00  0.00000000E+00  0.00000000E+00
  0.00000000E+00  0.00000000E+00  0.00000000E+00
  0.00000000E+00  0.00000000E+00  0.00000000E+00
  0.00000000E+00  0.00000000E+00  0.00000000E+00
  0.00000000E+00  0.00000000E+00  0.00000000E+00
  0.00000000E+00  0.00000000E+00  0.00000000E+00
  0.00000000E+00  0.00000000E+00  0.00000000E+00
  0.00000000E+00  0.00000000E+00  0.00000000E+00
  0.00000000E+00  0.00000000E+00  0.00000000E+00
  0.00000000E+00  0.00000000E+00  0.00000000E+00
  0.00000000E+00  0.00000000E+00  0.00000000E+00
  0.00000000E+00  0.00000000E+00  0.00000000E+00
  0.00000000E+00  0.00000000E+00  0.00000000E+00
  0.00000000E+00  0.00000000E+00  0.00000000E+00
  0.00000000E+00  0.00000000E+00  0.00000000E+00
  0.00000000E+00  0.00000000E+00  0.00000000E+00
  0.00000000E+00  0.00000000E+00  0.00000000E+00
  0.00000000E+00  0.00000000E+00  0.00000000E+00
  0.00000000E+00  0.00000000E+00  0.00000000E+00
  0.00000000E+00  0.00000000E+00  0.00000000E+00
  0.00000000E+00  0.00000000E+00  0.00000000E+00
  0.00000000E+00  0.00000000E+00  0.00000000E+00
  0.00000000E+00  0.00000000E+00  0.00000000E+00
  0.00000000E+00  0.00000000E+00  0.00000000E+00
  0.00000000E+00  0.00000000E+00  0.00000000E+00
  0.00000000E+00  0.00000000E+00  0.00000000E+00
  0.00000000E+00  0.00000000E+00  0.00000000E+00
  0.00000000E+00  0.00000000E+00  0.00000000E+00
  0.00000000E+00  0.00000000E+00  0.00000000E+00
  0.00000000E+00  0.00000000E+00  0.00000000E+00
  0.00000000E+00  0.00000000E+00  0.00000000E+00
  0.00000000E+00  0.00000000E+00  0.00000000E+00
  0.00000000E+00  0.00000000E+00  0.00000000E+00
  0.00000000E+00  0.00000000E+00  0.00000000E+00
  0.00000000E+00  0.00000000E+00  0.00000000E+00
  0.00000000E+00  0.00000000E+00  0.00000000E+00
  0.00000000E+00  0.00000000E+00  0.00000000E+00
  0.00000000E+00  0.00000000E+00  0.00000000E+00
