Unperturbed N(Distort)=2 ~[0.2,0.2,0.2] 
   1.0000000000000000     
    11.9929539999999992    0.0000000000000000    0.0000000000000000
     0.0000000000000000   11.9929539999999992    0.0000000000000000
     0.0000000000000000    0.0000000000000000   11.9929539999999992
   Cs   Pb   Br
     8     7    24
Direct
  0.0189920414936068  0.0189947291215075  0.0190007660326366
  0.0189916590903536  0.0189944526154728  0.4809988635414861
  0.0189917801242731  0.4810055513128385  0.0190010608306388
  0.0189917598083039  0.4810056504219394  0.4809991046111643
  0.4810081792088878  0.0189946209372629  0.0190010019618302
  0.4810083598768176  0.0189946998514704  0.4809991103965475
  0.4810082857266625  0.4810056521034105  0.0190012296737183
  0.4810082647074620  0.4810054398929646  0.4809990851349054
  0.2499999375625283  0.2499997317755795  0.7499998654449133
  0.2500000071073877  0.7499997841589439  0.2500001113173105
  0.2499998850958385  0.7499995382176178  0.7500000465572703
  0.7499999777135621  0.2500000684613016  0.2499999390468131
  0.7500000116809690  0.2499999991799232  0.7499997699645014
  0.7499999721316357  0.7500001397147755  0.2499999152709270
  0.7499998516450992  0.7499999838752477  0.7499997013919405
  0.2500003164202450  0.2500004746925694  0.9930399606420077
  0.2499996112266954  0.2499998649040218  0.5069598152172617
  0.2499997493902566  0.7499997624171644  0.0003309278568445
  0.2500001101317783  0.7500002738779823  0.4996690565576290
  0.7499996272790157  0.2499997783042255  0.0003250302795964
  0.7500002671222710  0.2500002376034076  0.4996751415962648
  0.7500002200881113  0.7500001643736531  0.0010750648956608
  0.7499997473845306  0.7499996980123665  0.4989253935500193
  0.2500000488323800  0.9930506361051699  0.2499999118288889
  0.2500000195422322  0.0003340230135950  0.7500003495469938
  0.2499999760586967  0.5069490745667555  0.2500001509681100
  0.2499998988342539  0.4996663110867753  0.7499998137192072
  0.7500000177131473  0.0003254512084770  0.2500002593667981
  0.7499998590177573  0.0010753568683929  0.7499997218607836
  0.7500000708251608  0.4996744322922819  0.2499997986235840
  0.7500002047781166  0.4989245919318150  0.7500000726731577
  0.9930720907099293  0.2500000197087253  0.2499999486777043
  0.0003345674654841  0.2499998143508104  0.7500004195293184
  0.0003322967845026  0.7500000003500001  0.2500001699721455
  0.0010760627315219  0.7500000792262159  0.7499997183820769
  0.5069278330687874  0.2499999905920370  0.2500002303708372
  0.4996654768310029  0.2500000482758781  0.7499996502964195
  0.4996677259584242  0.7499999732173561  0.2499997322488590
  0.4989242288323111  0.7499999013800898  0.7500000901632355

  0.00000000E+00  0.00000000E+00  0.00000000E+00
  0.00000000E+00  0.00000000E+00  0.00000000E+00
  0.00000000E+00  0.00000000E+00  0.00000000E+00
  0.00000000E+00  0.00000000E+00  0.00000000E+00
  0.00000000E+00  0.00000000E+00  0.00000000E+00
  0.00000000E+00  0.00000000E+00  0.00000000E+00
  0.00000000E+00  0.00000000E+00  0.00000000E+00
  0.00000000E+00  0.00000000E+00  0.00000000E+00
  0.00000000E+00  0.00000000E+00  0.00000000E+00
  0.00000000E+00  0.00000000E+00  0.00000000E+00
  0.00000000E+00  0.00000000E+00  0.00000000E+00
  0.00000000E+00  0.00000000E+00  0.00000000E+00
  0.00000000E+00  0.00000000E+00  0.00000000E+00
  0.00000000E+00  0.00000000E+00  0.00000000E+00
  0.00000000E+00  0.00000000E+00  0.00000000E+00
  0.00000000E+00  0.00000000E+00  0.00000000E+00
  0.00000000E+00  0.00000000E+00  0.00000000E+00
  0.00000000E+00  0.00000000E+00  0.00000000E+00
  0.00000000E+00  0.00000000E+00  0.00000000E+00
  0.00000000E+00  0.00000000E+00  0.00000000E+00
  0.00000000E+00  0.00000000E+00  0.00000000E+00
  0.00000000E+00  0.00000000E+00  0.00000000E+00
  0.00000000E+00  0.00000000E+00  0.00000000E+00
  0.00000000E+00  0.00000000E+00  0.00000000E+00
  0.00000000E+00  0.00000000E+00  0.00000000E+00
  0.00000000E+00  0.00000000E+00  0.00000000E+00
  0.00000000E+00  0.00000000E+00  0.00000000E+00
  0.00000000E+00  0.00000000E+00  0.00000000E+00
  0.00000000E+00  0.00000000E+00  0.00000000E+00
  0.00000000E+00  0.00000000E+00  0.00000000E+00
  0.00000000E+00  0.00000000E+00  0.00000000E+00
  0.00000000E+00  0.00000000E+00  0.00000000E+00
  0.00000000E+00  0.00000000E+00  0.00000000E+00
  0.00000000E+00  0.00000000E+00  0.00000000E+00
  0.00000000E+00  0.00000000E+00  0.00000000E+00
  0.00000000E+00  0.00000000E+00  0.00000000E+00
  0.00000000E+00  0.00000000E+00  0.00000000E+00
  0.00000000E+00  0.00000000E+00  0.00000000E+00
  0.00000000E+00  0.00000000E+00  0.00000000E+00
