40.0% N(Distort)=1 ~[0.2,0.2,0.5]       
   1.0000000000000000     
    11.9929539999999992    0.0000000000000000    0.0000000000000000
     0.0000000000000000   11.9929539999999992    0.0000000000000000
     0.0000000000000000    0.0000000000000000   11.9929539999999992
   Cs   Pb   Br
     8     8    23
Direct
 -0.0222024375950841  0.0073797797282553  0.0102305902823799
  0.9715407020968373 -0.0022006839383954  0.5238501463516544
  0.0348667459376280  0.4939229281517014  0.9691669035940368
  0.0077448363394369  0.5187221862456306  0.4648370664991358
  0.4764600315908286  0.0080920474099466  0.0244302047724789
  0.4789472697521658  0.9897581559629312  0.5160966713535334
  0.5161170767719527  0.4957921734502576  0.9565198984625995
  0.5319294363895419  0.5032613855398678  0.4753949352284929
  0.2540511872985741  0.2572987577885035  0.2441108613026355
  0.2496407768213613  0.2498143069301003  0.7223172889811896
  0.2481918591270010  0.7524253235090009  0.2433705818841060
  0.2485909095362836  0.7512118945287662  0.7420457779086109
  0.7502883672171676  0.2538455331144630  0.2428663708394441
  0.7507627119436746  0.2519370884311119  0.7407869492533850
  0.7481764060569419  0.7532767702674312  0.2387049376729159
  0.7487893306007455  0.7519056663402695  0.7459510511682387
  0.2857922128687856  0.2825245570062565  0.0125941543372457
  0.2858749551281479  0.7105037718560854 -0.0060211948294185
  0.2081672231270993  0.7953848844450506  0.4933187180131830
  0.7095886038216194  0.2202482599234207  0.9929635158930492
  0.7969078284268778  0.2863372950925298  0.4926297694161390
  0.7045902681212366  0.7899232848691689  0.9920313460163037
  0.7822608545957185  0.7268657550162111  0.4921719339793020
  0.2204491257360520  0.0022268565998397  0.2129021085154998
  0.2912857337689821 -0.0005594752434869  0.7692600072217529
  0.2732727170516136  0.5026367257730492  0.3008938370127701
  0.2065447581832681  0.5022298546047205  0.7046313512065017
  0.7914006500190541  0.0032302938816854  0.2663840171013234
  0.7204895409717669  0.0018819464375515  0.7058930574562320
  0.7052070118287276  0.5033244710887145  0.2148299688871680
  0.7803022565892014  0.5025455340816442  0.7808945115292285
 -0.0009844699307210  0.2899636817934123  0.2101138182271999
  0.9993141726575758  0.2124969000128479  0.7731538234825203
 -0.0023761298877372  0.7135714943338796  0.2015722314706396
  0.9978857346570993  0.7890444492730475  0.7817726218271379
  0.4994058255102594  0.2166016383398609  0.2958778317507058
  0.5018328139167951  0.2862751451044644  0.6958469147437436
  0.4978879553756327  0.7880999015903482  0.2796985716771974
  0.4985434310903505  0.7136912179030598  0.7042417081368363

  0.00000000E+00  0.00000000E+00  0.00000000E+00
  0.00000000E+00  0.00000000E+00  0.00000000E+00
  0.00000000E+00  0.00000000E+00  0.00000000E+00
  0.00000000E+00  0.00000000E+00  0.00000000E+00
  0.00000000E+00  0.00000000E+00  0.00000000E+00
  0.00000000E+00  0.00000000E+00  0.00000000E+00
  0.00000000E+00  0.00000000E+00  0.00000000E+00
  0.00000000E+00  0.00000000E+00  0.00000000E+00
  0.00000000E+00  0.00000000E+00  0.00000000E+00
  0.00000000E+00  0.00000000E+00  0.00000000E+00
  0.00000000E+00  0.00000000E+00  0.00000000E+00
  0.00000000E+00  0.00000000E+00  0.00000000E+00
  0.00000000E+00  0.00000000E+00  0.00000000E+00
  0.00000000E+00  0.00000000E+00  0.00000000E+00
  0.00000000E+00  0.00000000E+00  0.00000000E+00
  0.00000000E+00  0.00000000E+00  0.00000000E+00
  0.00000000E+00  0.00000000E+00  0.00000000E+00
  0.00000000E+00  0.00000000E+00  0.00000000E+00
  0.00000000E+00  0.00000000E+00  0.00000000E+00
  0.00000000E+00  0.00000000E+00  0.00000000E+00
  0.00000000E+00  0.00000000E+00  0.00000000E+00
  0.00000000E+00  0.00000000E+00  0.00000000E+00
  0.00000000E+00  0.00000000E+00  0.00000000E+00
  0.00000000E+00  0.00000000E+00  0.00000000E+00
  0.00000000E+00  0.00000000E+00  0.00000000E+00
  0.00000000E+00  0.00000000E+00  0.00000000E+00
  0.00000000E+00  0.00000000E+00  0.00000000E+00
  0.00000000E+00  0.00000000E+00  0.00000000E+00
  0.00000000E+00  0.00000000E+00  0.00000000E+00
  0.00000000E+00  0.00000000E+00  0.00000000E+00
  0.00000000E+00  0.00000000E+00  0.00000000E+00
  0.00000000E+00  0.00000000E+00  0.00000000E+00
  0.00000000E+00  0.00000000E+00  0.00000000E+00
  0.00000000E+00  0.00000000E+00  0.00000000E+00
  0.00000000E+00  0.00000000E+00  0.00000000E+00
  0.00000000E+00  0.00000000E+00  0.00000000E+00
  0.00000000E+00  0.00000000E+00  0.00000000E+00
  0.00000000E+00  0.00000000E+00  0.00000000E+00
  0.00000000E+00  0.00000000E+00  0.00000000E+00
