30.0% N(Distort)=2 ~[0.2,0.2,0.5]       
   1.0000000000000000     
    11.9929539999999992    0.0000000000000000    0.0000000000000000
     0.0000000000000000   11.9929539999999992    0.0000000000000000
     0.0000000000000000    0.0000000000000000   11.9929539999999992
   Cs   Pb   Br
     9     8    23
Direct
  0.9807153240118990  0.0420764255641641  0.9664855857868141
  0.9816965144411152 -0.0232557057271489  0.5156464078131802
  0.9892938414893440  0.4904923337955002  0.0145386946944298
 -0.0356943009265237  0.5221925663814546  0.5383648191600516
  0.5434274559997798  0.9812797449186076  0.0330125216337806
  0.5134474151944499  0.9813621847028290  0.5051482971014140
  0.5317902779172927  0.5140474475509547  0.0105635342397109
  0.5266944653480672  0.5495465800609163  0.5071637897831617
  0.2722022683743628  0.2625208007098862  0.4062344043955268
  0.2535060599991198  0.2437910952766179  0.0769503828860768
  0.2311117266350302  0.2853665355805233  0.8102078380510485
  0.2492726994105518  0.7384056921099564  0.2705032166248212
  0.2420907064540520  0.7825336387627186  0.7845367553147620
  0.7643060697849252  0.2385137870829402  0.2477101492632012
  0.7261474546846511  0.2622300448522698  0.7261458396525792
  0.7612903970800744  0.7415852875769068  0.2555498087057245
  0.7433397405648273  0.7627067925910661  0.7601311967304933
  0.4500342565377511  0.2402364673205183  0.9203312563152484
  0.2417516865238647  0.8514797392460602  0.0149353409624347
  0.2469051377358427  0.6531783059703382  0.4990819747465685
  0.7550630919599153  0.2640297557555839  0.0018614377187620
  0.8268006748605854  0.2414573063840038  0.5005098106935050
  0.7561229256992137  0.7354175207492312  0.0068176635654506
  0.7507265829645300  0.7672758451788306  0.5073970306732387
  0.2374149337354191  0.9624785171267112  0.3512978269852455
  0.2072220278929947  0.0284170802764108  0.7274633213657492
  0.2792716743647110  0.4664836888845934  0.1730182759532495
  0.2532521473419799  0.5371914616283351  0.8447686932608284
  0.8098933053074729  0.9864902636453464  0.2330669612104389
  0.7492528566659971  0.0122186002091836  0.7580966800660616
  0.7236608562297538  0.4918346149341086  0.2716138333319161
  0.7175388411610429  0.5143624750790606  0.7418949792836319
  0.0291020195145259  0.2459015542021521  0.2089076170621099
  0.9787125908830119  0.3040554300989160  0.7650818020729357
  0.0025428347880111  0.6862910449752088  0.2690657267355585
 -0.0074493553184926  0.7538305775082748  0.7522910026748993
  0.5296246787987621  0.1796813062208024  0.2666393120713065
  0.5091171339083820  0.2673599487182602  0.6036655995296674
  0.5048706564587379  0.7602795071586453  0.2615969243620135
  0.4930342221363616  0.7864035203587745  0.7572815635439064

  0.00000000E+00  0.00000000E+00  0.00000000E+00
  0.00000000E+00  0.00000000E+00  0.00000000E+00
  0.00000000E+00  0.00000000E+00  0.00000000E+00
  0.00000000E+00  0.00000000E+00  0.00000000E+00
  0.00000000E+00  0.00000000E+00  0.00000000E+00
  0.00000000E+00  0.00000000E+00  0.00000000E+00
  0.00000000E+00  0.00000000E+00  0.00000000E+00
  0.00000000E+00  0.00000000E+00  0.00000000E+00
  0.00000000E+00  0.00000000E+00  0.00000000E+00
  0.00000000E+00  0.00000000E+00  0.00000000E+00
  0.00000000E+00  0.00000000E+00  0.00000000E+00
  0.00000000E+00  0.00000000E+00  0.00000000E+00
  0.00000000E+00  0.00000000E+00  0.00000000E+00
  0.00000000E+00  0.00000000E+00  0.00000000E+00
  0.00000000E+00  0.00000000E+00  0.00000000E+00
  0.00000000E+00  0.00000000E+00  0.00000000E+00
  0.00000000E+00  0.00000000E+00  0.00000000E+00
  0.00000000E+00  0.00000000E+00  0.00000000E+00
  0.00000000E+00  0.00000000E+00  0.00000000E+00
  0.00000000E+00  0.00000000E+00  0.00000000E+00
  0.00000000E+00  0.00000000E+00  0.00000000E+00
  0.00000000E+00  0.00000000E+00  0.00000000E+00
  0.00000000E+00  0.00000000E+00  0.00000000E+00
  0.00000000E+00  0.00000000E+00  0.00000000E+00
  0.00000000E+00  0.00000000E+00  0.00000000E+00
  0.00000000E+00  0.00000000E+00  0.00000000E+00
  0.00000000E+00  0.00000000E+00  0.00000000E+00
  0.00000000E+00  0.00000000E+00  0.00000000E+00
  0.00000000E+00  0.00000000E+00  0.00000000E+00
  0.00000000E+00  0.00000000E+00  0.00000000E+00
  0.00000000E+00  0.00000000E+00  0.00000000E+00
  0.00000000E+00  0.00000000E+00  0.00000000E+00
  0.00000000E+00  0.00000000E+00  0.00000000E+00
  0.00000000E+00  0.00000000E+00  0.00000000E+00
  0.00000000E+00  0.00000000E+00  0.00000000E+00
  0.00000000E+00  0.00000000E+00  0.00000000E+00
  0.00000000E+00  0.00000000E+00  0.00000000E+00
  0.00000000E+00  0.00000000E+00  0.00000000E+00
  0.00000000E+00  0.00000000E+00  0.00000000E+00
  0.00000000E+00  0.00000000E+00  0.00000000E+00
