Cs9 Pb8 Br23                            
   1.0000000000000000     
    11.9929599761999999    0.0000000000000000    0.0000000000000000
     0.0000000000000000   11.9929523467999992    0.0000000000000000
     0.0000000000000000    0.0000000000000000   11.9929523467999992
   Cs   Pb   Br
     9     8    23
Direct
  0.9361038697195315  0.8054233555696398  0.7395146212163740
  0.5193893126066575  0.4414816230629298  0.5088506362959194
  0.5061674441093889  0.5069005362558152  0.0545643716005336
  0.5341730716492950 -0.0060125600447306  0.4701392687831426
  0.4986923515448100  0.0040455073719858  0.0241746536497722
 -0.0024020736899246  0.5216602262828566  0.4731634146720868
  0.0114459547735158  0.4994233724884166 -0.0080374868257526
  0.0045496822725545  0.0330003116337932  0.4499612680286684
  0.0299372429154212  0.0552065096552262  0.0266203266188890
  0.2627460735663037  0.2570788753419627  0.2658665624233465
  0.2596835455324218  0.2521745158145043  0.7599184083051332
  0.2452451236158460  0.7498861386187903  0.2765852890043188
  0.3314469391370791  0.7485600130293131  0.7896809561672659
  0.7605936753124313  0.2590158737250324  0.2477483137711902
  0.7600156741327245  0.2473698640789663  0.7513632892571300
  0.7590950215824533  0.7579826553083399  0.2428327193350576
  0.6067895002151770  0.7459565437163361  0.7721749243972876
  0.2916993282426963  0.2033718768212533  0.5116698601203813
  0.2392901763110190  0.2857862115082146  0.0148624782004718
  0.1512405859047892  0.7809854128263601  0.5055533067862618
  0.2606322954890136  0.6857596565343295  0.0254183293819602
  0.7447271832990756  0.2175284227225262  0.4975887779849664
  0.7880464872839860  0.2825993249211500  0.0001370822029969
  0.7935495200031973  0.8033361455438939  0.4819163486869198
  0.7581919332798022  0.7138677555086925 -0.0134115779157478
  0.2860413916055034  0.5008613346141676  0.3152747126006993
  0.1957667717949748  0.4806165557731688  0.7283965166513445
  0.2407632431125444  0.0041855403763114  0.2354730639475673
  0.2729445734695135  0.9855926732215179  0.8229473918009608
  0.7307618771244385  0.5054802054792106  0.2861034292218115
  0.8061200175197752  0.4793007245284300  0.7177225604964986
  0.7826202810670631  0.0101148485440927  0.2064293327725356
  0.6618145732060526  0.9838063212016493  0.7666258975999750
  0.5107477478148917  0.2371053368602883  0.2345088299592883
  0.4987544540019810  0.3111393915686544  0.7872297200637022
  0.5089873211526506  0.7835506590450918  0.2395794456239910
  0.4619116671320418  0.7245783247673543  0.5733974237610396
  0.0109349990097658  0.2834577571919278  0.2676456935537728
 -0.0080458576342393  0.1560436237590979  0.7408370078474804
  0.0088269590032978  0.7217785857348379  0.2089729151431850

  0.00000000E+00  0.00000000E+00  0.00000000E+00
  0.00000000E+00  0.00000000E+00  0.00000000E+00
  0.00000000E+00  0.00000000E+00  0.00000000E+00
  0.00000000E+00  0.00000000E+00  0.00000000E+00
  0.00000000E+00  0.00000000E+00  0.00000000E+00
  0.00000000E+00  0.00000000E+00  0.00000000E+00
  0.00000000E+00  0.00000000E+00  0.00000000E+00
  0.00000000E+00  0.00000000E+00  0.00000000E+00
  0.00000000E+00  0.00000000E+00  0.00000000E+00
  0.00000000E+00  0.00000000E+00  0.00000000E+00
  0.00000000E+00  0.00000000E+00  0.00000000E+00
  0.00000000E+00  0.00000000E+00  0.00000000E+00
  0.00000000E+00  0.00000000E+00  0.00000000E+00
  0.00000000E+00  0.00000000E+00  0.00000000E+00
  0.00000000E+00  0.00000000E+00  0.00000000E+00
  0.00000000E+00  0.00000000E+00  0.00000000E+00
  0.00000000E+00  0.00000000E+00  0.00000000E+00
  0.00000000E+00  0.00000000E+00  0.00000000E+00
  0.00000000E+00  0.00000000E+00  0.00000000E+00
  0.00000000E+00  0.00000000E+00  0.00000000E+00
  0.00000000E+00  0.00000000E+00  0.00000000E+00
  0.00000000E+00  0.00000000E+00  0.00000000E+00
  0.00000000E+00  0.00000000E+00  0.00000000E+00
  0.00000000E+00  0.00000000E+00  0.00000000E+00
  0.00000000E+00  0.00000000E+00  0.00000000E+00
  0.00000000E+00  0.00000000E+00  0.00000000E+00
  0.00000000E+00  0.00000000E+00  0.00000000E+00
  0.00000000E+00  0.00000000E+00  0.00000000E+00
  0.00000000E+00  0.00000000E+00  0.00000000E+00
  0.00000000E+00  0.00000000E+00  0.00000000E+00
  0.00000000E+00  0.00000000E+00  0.00000000E+00
  0.00000000E+00  0.00000000E+00  0.00000000E+00
  0.00000000E+00  0.00000000E+00  0.00000000E+00
  0.00000000E+00  0.00000000E+00  0.00000000E+00
  0.00000000E+00  0.00000000E+00  0.00000000E+00
  0.00000000E+00  0.00000000E+00  0.00000000E+00
  0.00000000E+00  0.00000000E+00  0.00000000E+00
  0.00000000E+00  0.00000000E+00  0.00000000E+00
  0.00000000E+00  0.00000000E+00  0.00000000E+00
  0.00000000E+00  0.00000000E+00  0.00000000E+00
