Cs8 Pb9 Br23                            
   1.0000000000000000     
    11.9929599761999999    0.0000000000000000    0.0000000000000000
     0.0000000000000000   11.9929523467999992    0.0000000000000000
     0.0000000000000000    0.0000000000000000   11.9929523467999992
   Cs   Pb   Br
     8     9    23
Direct
  0.5180892509311694  0.5117002767276078  0.4814223452072491
  0.4802251494997732  0.4724486332025685 -0.0103699749209851
  0.4880219661873319  0.9585417221186666  0.4894992582455426
  0.5177977123989042  0.9684240160549762 -0.0245919123607646
  0.0058626202117388  0.5266898369791644  0.5401030171901199
  0.0005062934001730  0.5419743053134245  0.0238832787524398
  0.9630694140523417 -0.0103456769405866  0.4917270629603825
  0.0145061624197782  0.0226248326693843  0.9603565278828461
  0.2240296343277592  0.2476138133504122  0.2482535116481552
  0.2729217316291610  0.2482368436129972  0.7627142825614071
  0.2410465625546787  0.7506818903553639  0.2558888451959824
  0.2561080987745513  0.7465334333212612  0.7588712418225320
  0.7441763107278647  0.2547351461313321  0.2383271430473476
  0.7549072770978282  0.2556190880267552  0.7369841754743597
  0.7442431521632309  0.7530766746235810  0.2455221034036965
  0.7554817167820935  0.7509638523719969  0.7531202017681293
  0.2303700743792010  0.2527737520811648  0.5103259667521812
  0.3446765722206344  0.2007003770066099  0.0278114912236998
  0.2796440741899305  0.7054237715707584  0.5082713936681222
  0.2129394122373693  0.7892692015903575  0.0078685440017654
  0.7892116553822872  0.3003148986853812  0.4776697338557117
  0.7233460523106530  0.2122022413024877  0.9800107333762152
  0.7310735038030441  0.7282718371181830  0.5007236976149110
  0.7935614631304225  0.7969996479349163  0.0005053557960327
  0.2553596222552500  0.4977883410717946  0.2133504979562353
  0.2127689396696833  0.5004096527259140  0.7984779671468962
  0.2130616864725896 -0.0086842776430857  0.3103865504613858
  0.3030898055357589 -0.0089670908161985  0.7382650099041734
  0.7095359655196005  0.5032691259733025  0.2022655711786567
  0.8048878770618956  0.5043405046830579  0.7803778453145582
  0.7380473065586836  0.0044197995342552  0.2811379471707084
  0.7199557408195657  0.0034135144525984  0.7081651820038239
  0.4435785111103293  0.2409698941818683  0.3765786635859094
  0.5182156171124594  0.3128156858816891  0.7182534213823318
  0.4943564374952039  0.7705781362525791  0.2280914287407166
  0.5077648141654481  0.7100980517108239  0.7856987176293027
 -0.0256154815200939  0.2595174848040355  0.1780368561144158
  0.0226744439507794  0.2153349524780596  0.7028265969964445
  0.9915608881952329  0.7191730945113125  0.2893889475422204
  0.0049421675928800  0.7900607234878914  0.7238306528690341

  0.00000000E+00  0.00000000E+00  0.00000000E+00
  0.00000000E+00  0.00000000E+00  0.00000000E+00
  0.00000000E+00  0.00000000E+00  0.00000000E+00
  0.00000000E+00  0.00000000E+00  0.00000000E+00
  0.00000000E+00  0.00000000E+00  0.00000000E+00
  0.00000000E+00  0.00000000E+00  0.00000000E+00
  0.00000000E+00  0.00000000E+00  0.00000000E+00
  0.00000000E+00  0.00000000E+00  0.00000000E+00
  0.00000000E+00  0.00000000E+00  0.00000000E+00
  0.00000000E+00  0.00000000E+00  0.00000000E+00
  0.00000000E+00  0.00000000E+00  0.00000000E+00
  0.00000000E+00  0.00000000E+00  0.00000000E+00
  0.00000000E+00  0.00000000E+00  0.00000000E+00
  0.00000000E+00  0.00000000E+00  0.00000000E+00
  0.00000000E+00  0.00000000E+00  0.00000000E+00
  0.00000000E+00  0.00000000E+00  0.00000000E+00
  0.00000000E+00  0.00000000E+00  0.00000000E+00
  0.00000000E+00  0.00000000E+00  0.00000000E+00
  0.00000000E+00  0.00000000E+00  0.00000000E+00
  0.00000000E+00  0.00000000E+00  0.00000000E+00
  0.00000000E+00  0.00000000E+00  0.00000000E+00
  0.00000000E+00  0.00000000E+00  0.00000000E+00
  0.00000000E+00  0.00000000E+00  0.00000000E+00
  0.00000000E+00  0.00000000E+00  0.00000000E+00
  0.00000000E+00  0.00000000E+00  0.00000000E+00
  0.00000000E+00  0.00000000E+00  0.00000000E+00
  0.00000000E+00  0.00000000E+00  0.00000000E+00
  0.00000000E+00  0.00000000E+00  0.00000000E+00
  0.00000000E+00  0.00000000E+00  0.00000000E+00
  0.00000000E+00  0.00000000E+00  0.00000000E+00
  0.00000000E+00  0.00000000E+00  0.00000000E+00
  0.00000000E+00  0.00000000E+00  0.00000000E+00
  0.00000000E+00  0.00000000E+00  0.00000000E+00
  0.00000000E+00  0.00000000E+00  0.00000000E+00
  0.00000000E+00  0.00000000E+00  0.00000000E+00
  0.00000000E+00  0.00000000E+00  0.00000000E+00
  0.00000000E+00  0.00000000E+00  0.00000000E+00
  0.00000000E+00  0.00000000E+00  0.00000000E+00
  0.00000000E+00  0.00000000E+00  0.00000000E+00
  0.00000000E+00  0.00000000E+00  0.00000000E+00
