Cs8 Pb7 Br25                            
   1.0000000000000000     
    11.9929599761999999    0.0000000000000000    0.0000000000000000
     0.0000000000000000   11.9929523467999992    0.0000000000000000
     0.0000000000000000    0.0000000000000000   11.9929523467999992
   Cs   Pb   Br
     8     7    25
Direct
  0.5454212566048209  0.5319098739021524  0.5119293740713903
  0.4770401954561908  0.4897168942559741 -0.0064116610606775
  0.5137611837467826  0.0102390126565207  0.4899663800227337
  0.4769134625464483  0.9796189268292528  0.9904777853432642
  0.0126261181852769  0.5382790681970002  0.5002043013389817
 -0.0021114913655043  0.4503853898769949  0.9861043427432895
  0.0031220536217743  0.0039568547408786  0.5059719690313540
  0.9889612209032623  0.9808406752344194 -0.0014536668968466
  0.2481224809320463  0.2512350984993557  0.2474643419453380
  0.2493039395596682  0.2487122818401971  0.7395503349563509
  0.2511187781477581  0.7496982878820797  0.2445180892224095
  0.2488052835549387  0.7484743605995079  0.7432483676287401
  0.7464478371270574  0.2512044439872857  0.2451182083838372
  0.7510127687399684  0.2608803258880653  0.7423300135569748
  0.7492876762632618  0.7539479819366337  0.2570499565768909
  0.7389184969442888  0.8253552493291755  0.8833697892357496
  0.1962742410857480  0.2638163585834869  0.4936469781059120
  0.2794047330118202  0.2346179370245523  0.9928406682593867
  0.2770035040882035  0.7223855132873529  0.4936894748544781
  0.2284086032679198  0.7762370207570823  0.9932738297678270
  0.7653816025599360  0.2022564163864756  0.4927250520536713
  0.7214182555237377  0.2901221067305307 -0.0054422691708209
  0.7297211426445305  0.7845600831490905  0.4890089068515274
  0.7678362677916556  0.6540066795600449  0.0064004301311685
  0.2097981547577617  0.5011227307845293  0.2171435516578626
  0.2098995794141508  0.4976289587805113  0.7633576066768281
  0.2888240183999841  0.0003372955261625  0.2642285223954738
  0.2876957871872391  0.9975346250136012  0.7195661665609508
  0.7843491415681068  0.4999390717542025  0.2877456491454801
  0.7926796058103625  0.4874408333711813  0.7081043670757451
  0.7136894321925984  0.0017470694350799  0.2008945192997755
  0.7013744790713555 -0.0018884789775884  0.7607336782209299
  0.4959415451623940  0.2896184838085352  0.2810772270892117
  0.4953185622567787  0.2880159335672595  0.7100063286135992
  0.4985733983513906  0.7163810152985132  0.2198727133091547
  0.4823982146492082  0.7109524328195009  0.7717143458052447
 -0.0031863874012308  0.2145921711429276  0.2088722989607699
 -0.0020357852690338  0.2038182563205714  0.7780545353679754
  0.0015500619434447  0.7924046019395804  0.2698610795348360
  0.0132878075570045  0.7804385970761146  0.7194207311524364

  0.00000000E+00  0.00000000E+00  0.00000000E+00
  0.00000000E+00  0.00000000E+00  0.00000000E+00
  0.00000000E+00  0.00000000E+00  0.00000000E+00
  0.00000000E+00  0.00000000E+00  0.00000000E+00
  0.00000000E+00  0.00000000E+00  0.00000000E+00
  0.00000000E+00  0.00000000E+00  0.00000000E+00
  0.00000000E+00  0.00000000E+00  0.00000000E+00
  0.00000000E+00  0.00000000E+00  0.00000000E+00
  0.00000000E+00  0.00000000E+00  0.00000000E+00
  0.00000000E+00  0.00000000E+00  0.00000000E+00
  0.00000000E+00  0.00000000E+00  0.00000000E+00
  0.00000000E+00  0.00000000E+00  0.00000000E+00
  0.00000000E+00  0.00000000E+00  0.00000000E+00
  0.00000000E+00  0.00000000E+00  0.00000000E+00
  0.00000000E+00  0.00000000E+00  0.00000000E+00
  0.00000000E+00  0.00000000E+00  0.00000000E+00
  0.00000000E+00  0.00000000E+00  0.00000000E+00
  0.00000000E+00  0.00000000E+00  0.00000000E+00
  0.00000000E+00  0.00000000E+00  0.00000000E+00
  0.00000000E+00  0.00000000E+00  0.00000000E+00
  0.00000000E+00  0.00000000E+00  0.00000000E+00
  0.00000000E+00  0.00000000E+00  0.00000000E+00
  0.00000000E+00  0.00000000E+00  0.00000000E+00
  0.00000000E+00  0.00000000E+00  0.00000000E+00
  0.00000000E+00  0.00000000E+00  0.00000000E+00
  0.00000000E+00  0.00000000E+00  0.00000000E+00
  0.00000000E+00  0.00000000E+00  0.00000000E+00
  0.00000000E+00  0.00000000E+00  0.00000000E+00
  0.00000000E+00  0.00000000E+00  0.00000000E+00
  0.00000000E+00  0.00000000E+00  0.00000000E+00
  0.00000000E+00  0.00000000E+00  0.00000000E+00
  0.00000000E+00  0.00000000E+00  0.00000000E+00
  0.00000000E+00  0.00000000E+00  0.00000000E+00
  0.00000000E+00  0.00000000E+00  0.00000000E+00
  0.00000000E+00  0.00000000E+00  0.00000000E+00
  0.00000000E+00  0.00000000E+00  0.00000000E+00
  0.00000000E+00  0.00000000E+00  0.00000000E+00
  0.00000000E+00  0.00000000E+00  0.00000000E+00
  0.00000000E+00  0.00000000E+00  0.00000000E+00
  0.00000000E+00  0.00000000E+00  0.00000000E+00
