Cs9 Pb8 Br24                            
   1.0000000000000000     
    11.9929599761999999    0.0000000000000000    0.0000000000000000
     0.0000000000000000   11.9929523467999992    0.0000000000000000
     0.0000000000000000    0.0000000000000000   11.9929523467999992
   Cs   Pb   Br
     9     8    24
Direct
  0.5002653929668487  0.3568351576467247  0.5000547222397210
  0.4934815572646123  0.5075105498376641  0.0012565788585090
  0.4987617239592089  0.0080367384376484  0.5003865236329433
  0.5364361874655081  0.0098205215517687 -0.0000314010287115
  0.9691250469649333  0.5170058024849622  0.4997503202347409
  0.9993605894532797  0.4979522996516266 -0.0000119817230065
  0.0044113099724612  0.0134868833007634  0.5002053959907310
  0.0038844682506864  0.9333275630960659 -0.0001307708416024
  0.5007969441676896  0.6588830960800667  0.5001583921589897
  0.2458029597257921  0.2548970029549341  0.2468771269934820
  0.2459534639790060  0.2551486663272290  0.7531215092206863
  0.2486061122246527  0.7564952709115672  0.2487362978263825
  0.2488284519738177  0.7566894069624525  0.7510444248265460
  0.7538251966647022  0.2564215462188058  0.2470762217523113
  0.7539848020921683  0.2564553441051022  0.7530094523616860
  0.7512917932592340  0.7584309973109656  0.2483779154913781
  0.7514741482999067  0.7583492671075530  0.7515521867059725
  0.2483782138253031  0.2037089644903396  0.4999385015781388
  0.2510029166834865  0.3058377531851821  0.0000104683384536
  0.2415498485251887  0.8056452913155202  0.4998823117836270
  0.2479350766394492  0.7124148314260419 -0.0001765653457607
  0.7545467735391708  0.2027867268357230  0.4999912949014561
  0.7407460635092583  0.3088854502604537  0.0001065963470814
  0.7611908498019206  0.8091403431190879  0.5000228413306194
  0.7456919375098527  0.7130307573783989 -0.0000055547725138
  0.3082665315660003  0.5067388527603418  0.2943060553293144
  0.3085016625535627  0.5068970526110886  0.7055100103278974
  0.2023703120387960  0.0064304385762773  0.2190197937594359
  0.2023599053701000  0.0065342076233244  0.7805506894356007
  0.7004134308794351  0.5080809353573725  0.3030454563465655
  0.7009841551230780  0.5080282935121792  0.6967778885894838
  0.7908315802954378  0.0079980724740022  0.2075571575824101
  0.7905680820793579  0.0078817192164016  0.7926100544584763
  0.5001765744262550  0.2034409461345546  0.2436637695149828
  0.5001746936262506  0.2034324870406979  0.7564356501979398
  0.4997879281319706  0.8128021065016651  0.2444987772361077
  0.4999746262573876  0.8131969732950993  0.7555432740409338
  0.9997332947556136  0.3113329231768627  0.2622951677592947
  0.9998641912156854  0.3114257045289793  0.7376423294445406
 -0.0005487016950566  0.7092676989179371  0.2461945869217392
 -0.0002728133267118  0.7093655073371254  0.7536715174577574

  0.00000000E+00  0.00000000E+00  0.00000000E+00
  0.00000000E+00  0.00000000E+00  0.00000000E+00
  0.00000000E+00  0.00000000E+00  0.00000000E+00
  0.00000000E+00  0.00000000E+00  0.00000000E+00
  0.00000000E+00  0.00000000E+00  0.00000000E+00
  0.00000000E+00  0.00000000E+00  0.00000000E+00
  0.00000000E+00  0.00000000E+00  0.00000000E+00
  0.00000000E+00  0.00000000E+00  0.00000000E+00
  0.00000000E+00  0.00000000E+00  0.00000000E+00
  0.00000000E+00  0.00000000E+00  0.00000000E+00
  0.00000000E+00  0.00000000E+00  0.00000000E+00
  0.00000000E+00  0.00000000E+00  0.00000000E+00
  0.00000000E+00  0.00000000E+00  0.00000000E+00
  0.00000000E+00  0.00000000E+00  0.00000000E+00
  0.00000000E+00  0.00000000E+00  0.00000000E+00
  0.00000000E+00  0.00000000E+00  0.00000000E+00
  0.00000000E+00  0.00000000E+00  0.00000000E+00
  0.00000000E+00  0.00000000E+00  0.00000000E+00
  0.00000000E+00  0.00000000E+00  0.00000000E+00
  0.00000000E+00  0.00000000E+00  0.00000000E+00
  0.00000000E+00  0.00000000E+00  0.00000000E+00
  0.00000000E+00  0.00000000E+00  0.00000000E+00
  0.00000000E+00  0.00000000E+00  0.00000000E+00
  0.00000000E+00  0.00000000E+00  0.00000000E+00
  0.00000000E+00  0.00000000E+00  0.00000000E+00
  0.00000000E+00  0.00000000E+00  0.00000000E+00
  0.00000000E+00  0.00000000E+00  0.00000000E+00
  0.00000000E+00  0.00000000E+00  0.00000000E+00
  0.00000000E+00  0.00000000E+00  0.00000000E+00
  0.00000000E+00  0.00000000E+00  0.00000000E+00
  0.00000000E+00  0.00000000E+00  0.00000000E+00
  0.00000000E+00  0.00000000E+00  0.00000000E+00
  0.00000000E+00  0.00000000E+00  0.00000000E+00
  0.00000000E+00  0.00000000E+00  0.00000000E+00
  0.00000000E+00  0.00000000E+00  0.00000000E+00
  0.00000000E+00  0.00000000E+00  0.00000000E+00
  0.00000000E+00  0.00000000E+00  0.00000000E+00
  0.00000000E+00  0.00000000E+00  0.00000000E+00
  0.00000000E+00  0.00000000E+00  0.00000000E+00
  0.00000000E+00  0.00000000E+00  0.00000000E+00
  0.00000000E+00  0.00000000E+00  0.00000000E+00
