Cs8 Pb8 Br25                            
   1.0000000000000000     
    11.9929599761999999    0.0000000000000000    0.0000000000000000
     0.0000000000000000   11.9929523467999992    0.0000000000000000
     0.0000000000000000    0.0000000000000000   11.9929523467999992
   Cs   Pb   Br
     8     8    25
Direct
  0.5243975153826478  0.4897418882538794  0.4837961456353460
  0.4511063516195874  0.5006034660766919  0.9979190728769710
  0.5007065309963658  0.0544178606677278  0.5035006587365116
  0.5047573679099773  0.9574270498771509  0.0084971348431018
  0.9959442170752719  0.4607554506040500  0.5001037080668069
  0.0188333155146582  0.5634725197242504 -0.0012645694720931
  0.9509837782078024  0.9864969281217338  0.5024893183654455
  0.0320404962343294  0.0019600655865469  0.9955036844054587
  0.2534409270122576  0.2514967430013208  0.2483661004681826
  0.2542083361722781  0.2552610592777874  0.7461644430807538
  0.2525503279038532  0.7549236785219976  0.2711996993761622
  0.2671127049319270  0.7554735488369126  0.6920824533202979
  0.7576422349491585  0.2433975989575202  0.2427655567673326
  0.7559470826564244  0.2476159594687062  0.7560900077577589
  0.7552719856935641  0.7423705614449244  0.2518287804615888
  0.7555360661213621  0.7462953144612757  0.7556769810351084
  0.2747592088855603  0.2760619575818866  0.4972560651361015
  0.2362923863456792  0.2533976126477651 -0.0027214152918223
  0.1187059945310033  0.7355918997330720  0.4996358338075456
  0.2581312724539491  0.7613056429408640  0.0227924381328889
  0.7440691289866622  0.2650721915824623  0.4991063905867364
  0.7670590590658922  0.1941815744622254 -0.0008725418428734
  0.7649828874610612  0.7111517400732138  0.5045626290437993
  0.7671639350484180  0.7780121710140301  0.0047985279809148
  0.2198339580784068  0.5020502683651399  0.2469498152693757
  0.2275452993339118  0.5057881027341038  0.7504952140260640
  0.2988683682089917  0.0056846125115506  0.2590331730034516
  0.2874106091341850  0.0049929848729348  0.7418772272017803
  0.8046485134928562  0.4917123564995926  0.2311276591420905
  0.7968969275239000  0.4949159909479808  0.7764821230731652
  0.7141753868517321 -0.0066616546471930  0.2813917674023983
  0.7184729410524539 -0.0036509772678288  0.7213250323991847
  0.5071225903441213  0.2862447489383677  0.2357702620761014
  0.5063902657100130  0.2893238974571689  0.7537922026338754
  0.5158853195276858  0.6990673610254196  0.2211431159377900
  0.5095374690096680  0.7206408510644720  0.7985861658887515
  0.0066355769856554  0.2041604977610451  0.2727925324827590
  0.0055570210834710  0.2136909870577002  0.7231405829461219
  0.0060862988009062  0.7970899332785942  0.2245572989625650
 -0.0014927027428503  0.7906201630268880  0.7784942927436215
  0.4147830058641220  0.7678454452796544  0.5037644095415328

  0.00000000E+00  0.00000000E+00  0.00000000E+00
  0.00000000E+00  0.00000000E+00  0.00000000E+00
  0.00000000E+00  0.00000000E+00  0.00000000E+00
  0.00000000E+00  0.00000000E+00  0.00000000E+00
  0.00000000E+00  0.00000000E+00  0.00000000E+00
  0.00000000E+00  0.00000000E+00  0.00000000E+00
  0.00000000E+00  0.00000000E+00  0.00000000E+00
  0.00000000E+00  0.00000000E+00  0.00000000E+00
  0.00000000E+00  0.00000000E+00  0.00000000E+00
  0.00000000E+00  0.00000000E+00  0.00000000E+00
  0.00000000E+00  0.00000000E+00  0.00000000E+00
  0.00000000E+00  0.00000000E+00  0.00000000E+00
  0.00000000E+00  0.00000000E+00  0.00000000E+00
  0.00000000E+00  0.00000000E+00  0.00000000E+00
  0.00000000E+00  0.00000000E+00  0.00000000E+00
  0.00000000E+00  0.00000000E+00  0.00000000E+00
  0.00000000E+00  0.00000000E+00  0.00000000E+00
  0.00000000E+00  0.00000000E+00  0.00000000E+00
  0.00000000E+00  0.00000000E+00  0.00000000E+00
  0.00000000E+00  0.00000000E+00  0.00000000E+00
  0.00000000E+00  0.00000000E+00  0.00000000E+00
  0.00000000E+00  0.00000000E+00  0.00000000E+00
  0.00000000E+00  0.00000000E+00  0.00000000E+00
  0.00000000E+00  0.00000000E+00  0.00000000E+00
  0.00000000E+00  0.00000000E+00  0.00000000E+00
  0.00000000E+00  0.00000000E+00  0.00000000E+00
  0.00000000E+00  0.00000000E+00  0.00000000E+00
  0.00000000E+00  0.00000000E+00  0.00000000E+00
  0.00000000E+00  0.00000000E+00  0.00000000E+00
  0.00000000E+00  0.00000000E+00  0.00000000E+00
  0.00000000E+00  0.00000000E+00  0.00000000E+00
  0.00000000E+00  0.00000000E+00  0.00000000E+00
  0.00000000E+00  0.00000000E+00  0.00000000E+00
  0.00000000E+00  0.00000000E+00  0.00000000E+00
  0.00000000E+00  0.00000000E+00  0.00000000E+00
  0.00000000E+00  0.00000000E+00  0.00000000E+00
  0.00000000E+00  0.00000000E+00  0.00000000E+00
  0.00000000E+00  0.00000000E+00  0.00000000E+00
  0.00000000E+00  0.00000000E+00  0.00000000E+00
  0.00000000E+00  0.00000000E+00  0.00000000E+00
  0.00000000E+00  0.00000000E+00  0.00000000E+00
