Cs8 Pb9 Br24                            
   1.0000000000000000     
    11.9929599761999999    0.0000000000000000    0.0000000000000000
     0.0000000000000000   11.9929523467999992    0.0000000000000000
     0.0000000000000000    0.0000000000000000   11.9929523467999992
   Cs   Pb   Br
     8     9    24
Direct
  0.4862828878737883  0.4221728545889588  0.5640556361667539
  0.4916254270790454  0.4487620148396090  0.0172608251646307
  0.4937292515715146  0.0519322982688750  0.4989991100827854
  0.5045587782690797  0.9806810648127213  0.0033996248748443
  0.9920633958596989  0.5085163444801013  0.4529134425921258
  0.0157435677609947  0.5514183888215670 -0.0056437800128049
  0.9842338239246934  0.0131456621062019  0.4743341843165947
  0.0118663073251757  0.0098561084641465 -0.0042210414281532
  0.4951447697255763  0.7159536510798887  0.4609155320434773
  0.2411954223425464  0.2681549484731177  0.2556370424179076
  0.2364686512751941  0.2476646359260704  0.7673141849576707
  0.3000676374075538  0.7791684508844460  0.2946556056527044
  0.2450430005132008  0.7548775816871114  0.7486713274383378
  0.7465667947365996  0.2555732119235510  0.2532398452526626
  0.7538211573908712  0.2517186817016486  0.7646247431432931
  0.7691235335576063  0.7581038456030097  0.2316521318445650
  0.7556946949228853  0.7540502265565727  0.7391244315027845
  0.2129581621988924  0.2819339194296870  0.5143390722640342
  0.2745249388639049  0.1978734682792311  0.0127272082060788
  0.2630605793169780  0.6324077758234742  0.5038924144813943
  0.2444757853937054  0.7943823993125195  0.9825118068523363
  0.7680080898701480  0.2768774215411463  0.5095377209055302
  0.7116495982984667  0.2174288588189590  0.0090037964458027
  0.7643147279528469  0.7623616157433438  0.4862245434274998
  0.7763205558889885  0.7971288433297200  0.9843781884732908
  0.2210040749280194  0.5016347680372125  0.2065665105679691
  0.2804264705049456  0.4911746994505449  0.8035816481774821
  0.2661961752234430  0.0169573820034026  0.3032773768437101
  0.1989646486836969 -0.0051175604110021  0.7042918039392559
  0.7959017875914676  0.5054226095029927  0.2123828159930109
  0.7020673493720683  0.5057097989966133  0.7796805356962874
  0.7047877091438899  0.0070762168668654  0.2701904252085314
  0.7978709374405911  0.0063779488941183  0.7281130868532734
  0.4943459460664757  0.2896442181475524  0.2869534438346245
  0.4953797287502813  0.2030746069844706  0.7619539549848562
  0.5141160470902493  0.6940510459068848  0.1933631598685642
  0.4983427624204428  0.8105318856132477  0.7037807134462890
  0.9922766609727314  0.2170427282976601  0.2381299370033397
  0.9950209684618141  0.2851216950999087  0.8204723200741644
  0.0061207686064158  0.7888854588553806  0.2466922391288321
  0.9986377651385187  0.7002688392525321  0.7210229299686398

  0.00000000E+00  0.00000000E+00  0.00000000E+00
  0.00000000E+00  0.00000000E+00  0.00000000E+00
  0.00000000E+00  0.00000000E+00  0.00000000E+00
  0.00000000E+00  0.00000000E+00  0.00000000E+00
  0.00000000E+00  0.00000000E+00  0.00000000E+00
  0.00000000E+00  0.00000000E+00  0.00000000E+00
  0.00000000E+00  0.00000000E+00  0.00000000E+00
  0.00000000E+00  0.00000000E+00  0.00000000E+00
  0.00000000E+00  0.00000000E+00  0.00000000E+00
  0.00000000E+00  0.00000000E+00  0.00000000E+00
  0.00000000E+00  0.00000000E+00  0.00000000E+00
  0.00000000E+00  0.00000000E+00  0.00000000E+00
  0.00000000E+00  0.00000000E+00  0.00000000E+00
  0.00000000E+00  0.00000000E+00  0.00000000E+00
  0.00000000E+00  0.00000000E+00  0.00000000E+00
  0.00000000E+00  0.00000000E+00  0.00000000E+00
  0.00000000E+00  0.00000000E+00  0.00000000E+00
  0.00000000E+00  0.00000000E+00  0.00000000E+00
  0.00000000E+00  0.00000000E+00  0.00000000E+00
  0.00000000E+00  0.00000000E+00  0.00000000E+00
  0.00000000E+00  0.00000000E+00  0.00000000E+00
  0.00000000E+00  0.00000000E+00  0.00000000E+00
  0.00000000E+00  0.00000000E+00  0.00000000E+00
  0.00000000E+00  0.00000000E+00  0.00000000E+00
  0.00000000E+00  0.00000000E+00  0.00000000E+00
  0.00000000E+00  0.00000000E+00  0.00000000E+00
  0.00000000E+00  0.00000000E+00  0.00000000E+00
  0.00000000E+00  0.00000000E+00  0.00000000E+00
  0.00000000E+00  0.00000000E+00  0.00000000E+00
  0.00000000E+00  0.00000000E+00  0.00000000E+00
  0.00000000E+00  0.00000000E+00  0.00000000E+00
  0.00000000E+00  0.00000000E+00  0.00000000E+00
  0.00000000E+00  0.00000000E+00  0.00000000E+00
  0.00000000E+00  0.00000000E+00  0.00000000E+00
  0.00000000E+00  0.00000000E+00  0.00000000E+00
  0.00000000E+00  0.00000000E+00  0.00000000E+00
  0.00000000E+00  0.00000000E+00  0.00000000E+00
  0.00000000E+00  0.00000000E+00  0.00000000E+00
  0.00000000E+00  0.00000000E+00  0.00000000E+00
  0.00000000E+00  0.00000000E+00  0.00000000E+00
  0.00000000E+00  0.00000000E+00  0.00000000E+00
