Cs8 Pb8 Br23                            
   1.0000000000000000     
    11.9929599761999999    0.0000000000000000    0.0000000000000000
     0.0000000000000000   11.9929523467999992    0.0000000000000000
     0.0000000000000000    0.0000000000000000   11.9929523467999992
   Cs   Pb   Br
     8     8    23
Direct
  0.4999750498269433  0.5197009701777066  0.5390209118289124
  0.4999542044366239  0.5388582663398682  0.0141081279963209
  0.5000112378945155  0.0181747608630486  0.5241098796412158
  0.5000261017887840  0.0142211224171951  0.0231667651067465
  0.0000323335310371  0.4783892793472475  0.4615731580385436
 -0.0000755033039495  0.4512056071367330 -0.0090054281010439
 -0.0000564605505970  0.9763082796247134  0.4767981717602294
 -0.0001537790581476  0.9842963349389374 -0.0222610991444411
  0.2533603662164759  0.2494247407771234  0.2494856878089627
  0.2488826128359913  0.2500852206048680  0.7488857070046925
  0.2497322599542251  0.7497919041414758  0.2530754235518206
  0.2469207214919946  0.7515123274902865  0.7512718899856173
  0.7465094011999300  0.2493986382534210  0.2494977384812630
  0.7510579303633658  0.2499852452872453  0.7488718309551541
  0.7505863418265614  0.7497735924342015  0.2531496964001613
  0.7534000048825642  0.7513887439996728  0.7512714318200320
  0.2871683045385799  0.2889417762836443  0.4986891240559979
  0.2138283449670002  0.2091674236635034 -0.0009277908344958
  0.2085765799578778  0.7115740696344353  0.5028747275517313
  0.2763688254426477  0.7909183767566426  0.0034913841252547
  0.7127216982694891  0.2889015603017315  0.4985595879237890
  0.7860465248738071  0.2091497205181581 -0.0009244313955961
  0.7916039536952058  0.7115739198199359  0.5027287132988052
  0.7236616855415329  0.7908856213089549  0.0034389351075704
  0.2145920868401892  0.4990666891547291  0.2117561746751509
  0.2774833954590514  0.4993012066821617  0.7924962394870561
  0.2868239089291788  0.9995740623099979  0.2919658978917807
  0.2050220957140494 -0.0001177469604103  0.7138037610718868
  0.7854085317427247  0.4990381118854458  0.2117212720456901
  0.7224272303025133  0.4992677697939411  0.7923963507673332
  0.7129408078921308 -0.0004077177256273  0.2921525373863847
  0.7948767822211922 -0.0000006923072417  0.7138200908500318
  0.5000427588395325  0.2777759339299182  0.1974591121953592
  0.4999902039051935  0.2072113990385409  0.7737258075854749
  0.5000310171399616  0.7083027350339399  0.2827388207171925
  0.5000026210527658  0.7696595868926638  0.7312548136820147
  0.0000467789208792  0.2222485780042940  0.2813452330088900
  0.0000496235121451  0.2954904240836790  0.7184226326877545
  0.0001096642368812  0.7899666909050898  0.2239948510939211

  0.00000000E+00  0.00000000E+00  0.00000000E+00
  0.00000000E+00  0.00000000E+00  0.00000000E+00
  0.00000000E+00  0.00000000E+00  0.00000000E+00
  0.00000000E+00  0.00000000E+00  0.00000000E+00
  0.00000000E+00  0.00000000E+00  0.00000000E+00
  0.00000000E+00  0.00000000E+00  0.00000000E+00
  0.00000000E+00  0.00000000E+00  0.00000000E+00
  0.00000000E+00  0.00000000E+00  0.00000000E+00
  0.00000000E+00  0.00000000E+00  0.00000000E+00
  0.00000000E+00  0.00000000E+00  0.00000000E+00
  0.00000000E+00  0.00000000E+00  0.00000000E+00
  0.00000000E+00  0.00000000E+00  0.00000000E+00
  0.00000000E+00  0.00000000E+00  0.00000000E+00
  0.00000000E+00  0.00000000E+00  0.00000000E+00
  0.00000000E+00  0.00000000E+00  0.00000000E+00
  0.00000000E+00  0.00000000E+00  0.00000000E+00
  0.00000000E+00  0.00000000E+00  0.00000000E+00
  0.00000000E+00  0.00000000E+00  0.00000000E+00
  0.00000000E+00  0.00000000E+00  0.00000000E+00
  0.00000000E+00  0.00000000E+00  0.00000000E+00
  0.00000000E+00  0.00000000E+00  0.00000000E+00
  0.00000000E+00  0.00000000E+00  0.00000000E+00
  0.00000000E+00  0.00000000E+00  0.00000000E+00
  0.00000000E+00  0.00000000E+00  0.00000000E+00
  0.00000000E+00  0.00000000E+00  0.00000000E+00
  0.00000000E+00  0.00000000E+00  0.00000000E+00
  0.00000000E+00  0.00000000E+00  0.00000000E+00
  0.00000000E+00  0.00000000E+00  0.00000000E+00
  0.00000000E+00  0.00000000E+00  0.00000000E+00
  0.00000000E+00  0.00000000E+00  0.00000000E+00
  0.00000000E+00  0.00000000E+00  0.00000000E+00
  0.00000000E+00  0.00000000E+00  0.00000000E+00
  0.00000000E+00  0.00000000E+00  0.00000000E+00
  0.00000000E+00  0.00000000E+00  0.00000000E+00
  0.00000000E+00  0.00000000E+00  0.00000000E+00
  0.00000000E+00  0.00000000E+00  0.00000000E+00
  0.00000000E+00  0.00000000E+00  0.00000000E+00
  0.00000000E+00  0.00000000E+00  0.00000000E+00
  0.00000000E+00  0.00000000E+00  0.00000000E+00
