Cs7 Pb8 Br24                            
   1.0000000000000000     
    11.9929599761999999    0.0000000000000000    0.0000000000000000
     0.0000000000000000   11.9929523467999992    0.0000000000000000
     0.0000000000000000    0.0000000000000000   11.9929523467999992
   Cs   Pb   Br
     7     8    24
Direct
  0.5175636032232084  0.4814720229970359 -0.0000141185097151
  0.4796987113403471  0.0153898022294164  0.4999278746341255
  0.5192024208285292  0.9844504413434624  0.0000502668922041
  0.9742015022688774  0.5171443958957711  0.4998904258186087
  0.0160507471757795  0.4853836989046593  0.0000743955762881
  0.9973945689732000  0.0236196830128836  0.4999556486251458
  0.0154919862087334  0.9719353593319564  0.0000629812299762
  0.2501340103097648  0.2509969540177393  0.2496882179870414
  0.2500885616335110  0.2510802821717245  0.7503331291651867
  0.2519434904298363  0.7469566314810903  0.2515988380150483
  0.2520122270403757  0.7470758502142836  0.7484359887971952
  0.7491275246826786  0.2508479121149770  0.2513421690660205
  0.7490432466040583  0.2508301735875136  0.7486966543873639
  0.7479382276241408  0.7507499594038015  0.2518336704561060
  0.7480681879935080  0.7507448450190152  0.7481041013527129
  0.2660416156072752  0.2536365570150571  0.5000163695989659
  0.2135310031789100  0.2232295989636063  0.0000063595663176
  0.2135007705423658  0.7312640437609924  0.5000886593424315
  0.2717313847095509  0.7822100225277848  0.0000559199222612
  0.7354332994061914  0.2078420148726703  0.5000425441881632
  0.7709535620902183  0.2786185336903954  0.0000806385676387
  0.7879708056401727  0.7793562420586605  0.5000233280572498
  0.7200840833169084  0.7327345787666381  0.0000052159089068
  0.2736498237444590  0.4985373036008065  0.2081379815341376
  0.2737425586610953  0.4982455110176421  0.7916722329629798
  0.2151582314691659 -0.0012631931415258  0.2700421092246337
  0.2152344114867301 -0.0015350062643369  0.7298594120943652
  0.7282360291784504  0.5016650430337288  0.2670967654406297
  0.7283128254186574  0.5016768010738946  0.7329549871126664
  0.7853841708503022  0.0016919580766272  0.2194708651810733
  0.7852608827779628  0.0018098964809682  0.7803998511107738
  0.4989555322948878  0.2141779712591906  0.2198377438508076
  0.4988642153384364  0.2141176067876014  0.7801868177327905
  0.5006811897085306  0.7972808939072219  0.2676349090992119
  0.5006264025214339  0.7973057614618029  0.7322090730610935
 -0.0012130321683310  0.2840822703654899  0.2784598520351111
 -0.0011885009933265  0.2839232383730709  0.7216620979983586
  0.0005767256537894  0.7203357710231217  0.2191246179702156
  0.0005129898960688  0.7203785451243371  0.7809514298187488

  0.00000000E+00  0.00000000E+00  0.00000000E+00
  0.00000000E+00  0.00000000E+00  0.00000000E+00
  0.00000000E+00  0.00000000E+00  0.00000000E+00
  0.00000000E+00  0.00000000E+00  0.00000000E+00
  0.00000000E+00  0.00000000E+00  0.00000000E+00
  0.00000000E+00  0.00000000E+00  0.00000000E+00
  0.00000000E+00  0.00000000E+00  0.00000000E+00
  0.00000000E+00  0.00000000E+00  0.00000000E+00
  0.00000000E+00  0.00000000E+00  0.00000000E+00
  0.00000000E+00  0.00000000E+00  0.00000000E+00
  0.00000000E+00  0.00000000E+00  0.00000000E+00
  0.00000000E+00  0.00000000E+00  0.00000000E+00
  0.00000000E+00  0.00000000E+00  0.00000000E+00
  0.00000000E+00  0.00000000E+00  0.00000000E+00
  0.00000000E+00  0.00000000E+00  0.00000000E+00
  0.00000000E+00  0.00000000E+00  0.00000000E+00
  0.00000000E+00  0.00000000E+00  0.00000000E+00
  0.00000000E+00  0.00000000E+00  0.00000000E+00
  0.00000000E+00  0.00000000E+00  0.00000000E+00
  0.00000000E+00  0.00000000E+00  0.00000000E+00
  0.00000000E+00  0.00000000E+00  0.00000000E+00
  0.00000000E+00  0.00000000E+00  0.00000000E+00
  0.00000000E+00  0.00000000E+00  0.00000000E+00
  0.00000000E+00  0.00000000E+00  0.00000000E+00
  0.00000000E+00  0.00000000E+00  0.00000000E+00
  0.00000000E+00  0.00000000E+00  0.00000000E+00
  0.00000000E+00  0.00000000E+00  0.00000000E+00
  0.00000000E+00  0.00000000E+00  0.00000000E+00
  0.00000000E+00  0.00000000E+00  0.00000000E+00
  0.00000000E+00  0.00000000E+00  0.00000000E+00
  0.00000000E+00  0.00000000E+00  0.00000000E+00
  0.00000000E+00  0.00000000E+00  0.00000000E+00
  0.00000000E+00  0.00000000E+00  0.00000000E+00
  0.00000000E+00  0.00000000E+00  0.00000000E+00
  0.00000000E+00  0.00000000E+00  0.00000000E+00
  0.00000000E+00  0.00000000E+00  0.00000000E+00
  0.00000000E+00  0.00000000E+00  0.00000000E+00
  0.00000000E+00  0.00000000E+00  0.00000000E+00
  0.00000000E+00  0.00000000E+00  0.00000000E+00
