Cs9 Pb7 Br24                            
   1.0000000000000000     
    11.9929599761999999    0.0000000000000000    0.0000000000000000
     0.0000000000000000   11.9929523467999992    0.0000000000000000
     0.0000000000000000    0.0000000000000000   11.9929523467999992
   Cs   Pb   Br
     9     7    24
Direct
  0.5285057580544958  0.5096555905135775  0.5172658083156734
  0.5323149412269207  0.5098925110194661 -0.0021198549883453
  0.4861596789569940  0.9895286172854345  0.4700309015623956
  0.4701326215503789 -0.0026226779533848  0.9666765433142909
  0.0306899645130169  0.5062027395450315  0.5319924604712490
  0.0142156678823085  0.4867960637987250  0.0385347014837745
  0.9661004462138402  0.0094254932470426  0.4974487549070862
  0.9752499983421821 -0.0066405471786363  0.9708457982579732
  0.2526825110972307  0.2480721772536531  0.2546378997638732
  0.2490470176034183  0.2548315586735138  0.7520981865331234
  0.2506583425863071  0.7487122399549656  0.2481476564634353
  0.2498986786229797  0.7521312657826998  0.7492701009006686
  0.7480758347966313  0.2464325982290850  0.2503712656157666
  0.7473149580482352  0.2511478941949215  0.7491632493506165
  0.7535421984497416  0.7491171804947960  0.2462131868620911
  0.7520837192819979  0.7510582395808805  0.7474553742631322
  0.2931858468959193  0.3255391150396380  0.5245095240506219
  0.1930891226641841  0.1981570490372317  0.9816702435561779
  0.2844246197036908  0.6992736937505845  0.5025116454080211
  0.2213744347474129  0.8062099700787302  0.9984962501385594
  0.6978704793941494  0.2233084275134883  0.5027345268913452
  0.7912090240733138  0.2707695614923608 -0.0005084319409944
  0.7210538944063427  0.7746540192102355  0.4972032156245040
  0.7875775804680548  0.7212265679280976  0.9963948396784038
  0.2906604020540207  0.5200400728828019  0.1743383444182516
  0.2172580916001526  0.5072875154618605  0.8003192904237676
  0.2114584697999527  0.9753230010020703  0.3283277487568796
  0.2791976920752043  0.0044438711340858  0.7063986200060339
  0.6978398021387752  0.4969867272175379  0.2577160114821179
  0.7672150152433024  0.5013100696440453  0.7214742711513139
  0.8099223451162427  0.9938874441328291  0.2337262560285218
  0.7294238858395823  0.0005719210405833  0.7739107863225690
  0.5220422981528657  0.1685137492486843  0.2081028891140788
  0.4985304129901376  0.2729170000136806  0.8004181276439243
  0.5045193822459563  0.7912641112577121  0.2177731729573152
  0.5014442710794395  0.7297754520910346  0.7778234268179026
  0.9769986840451944  0.3018224850552907  0.3122667327352163
  0.9953764602117492  0.2345679693551255  0.7064090273320212
  0.0017252380383921  0.6971548928798772  0.2761216598385344
  0.0007564811906660  0.7806971780743444  0.7135826289167118

  0.00000000E+00  0.00000000E+00  0.00000000E+00
  0.00000000E+00  0.00000000E+00  0.00000000E+00
  0.00000000E+00  0.00000000E+00  0.00000000E+00
  0.00000000E+00  0.00000000E+00  0.00000000E+00
  0.00000000E+00  0.00000000E+00  0.00000000E+00
  0.00000000E+00  0.00000000E+00  0.00000000E+00
  0.00000000E+00  0.00000000E+00  0.00000000E+00
  0.00000000E+00  0.00000000E+00  0.00000000E+00
  0.00000000E+00  0.00000000E+00  0.00000000E+00
  0.00000000E+00  0.00000000E+00  0.00000000E+00
  0.00000000E+00  0.00000000E+00  0.00000000E+00
  0.00000000E+00  0.00000000E+00  0.00000000E+00
  0.00000000E+00  0.00000000E+00  0.00000000E+00
  0.00000000E+00  0.00000000E+00  0.00000000E+00
  0.00000000E+00  0.00000000E+00  0.00000000E+00
  0.00000000E+00  0.00000000E+00  0.00000000E+00
  0.00000000E+00  0.00000000E+00  0.00000000E+00
  0.00000000E+00  0.00000000E+00  0.00000000E+00
  0.00000000E+00  0.00000000E+00  0.00000000E+00
  0.00000000E+00  0.00000000E+00  0.00000000E+00
  0.00000000E+00  0.00000000E+00  0.00000000E+00
  0.00000000E+00  0.00000000E+00  0.00000000E+00
  0.00000000E+00  0.00000000E+00  0.00000000E+00
  0.00000000E+00  0.00000000E+00  0.00000000E+00
  0.00000000E+00  0.00000000E+00  0.00000000E+00
  0.00000000E+00  0.00000000E+00  0.00000000E+00
  0.00000000E+00  0.00000000E+00  0.00000000E+00
  0.00000000E+00  0.00000000E+00  0.00000000E+00
  0.00000000E+00  0.00000000E+00  0.00000000E+00
  0.00000000E+00  0.00000000E+00  0.00000000E+00
  0.00000000E+00  0.00000000E+00  0.00000000E+00
  0.00000000E+00  0.00000000E+00  0.00000000E+00
  0.00000000E+00  0.00000000E+00  0.00000000E+00
  0.00000000E+00  0.00000000E+00  0.00000000E+00
  0.00000000E+00  0.00000000E+00  0.00000000E+00
  0.00000000E+00  0.00000000E+00  0.00000000E+00
  0.00000000E+00  0.00000000E+00  0.00000000E+00
  0.00000000E+00  0.00000000E+00  0.00000000E+00
  0.00000000E+00  0.00000000E+00  0.00000000E+00
  0.00000000E+00  0.00000000E+00  0.00000000E+00
