Cs8 Pb7 Br24                            
   1.0000000000000000     
    11.9929599761999999    0.0000000000000000    0.0000000000000000
     0.0000000000000000   11.9929523467999992    0.0000000000000000
     0.0000000000000000    0.0000000000000000   11.9929523467999992
   Cs   Pb   Br
     8     7    24
Direct
  0.4688393770001973  0.4572081761459850  0.4839303664049329
  0.5093424422935151  0.5223792765873155  0.0014405336179366
  0.4725661725105498 -0.0062319758354699  0.4890646387067545
  0.4951705099869501  0.0293352384329242  0.0154192720698586
 -0.0135606842018145  0.4733439467494848  0.4932719439072528
  0.0391256993240767  0.5006373251678264  0.0140264292343106
 -0.0012591884951603 -0.0050402322485659  0.4866425614384944
  0.0255525897732055  0.0352819954451907  0.0128663864776842
  0.2465755916645757  0.2495584262408693  0.7489550977683836
  0.2532016283773482  0.7492470922045226  0.2495877717698448
  0.2501512946841593  0.7492662490369887  0.7489643500805879
  0.7481888420025656  0.2502811059892535  0.2502264838779619
  0.7466341988196201  0.2516645703321680  0.7507154396146034
  0.7531260956810187  0.7499159506811508  0.2495671410736592
  0.7513347548837371  0.7533633471313114  0.7505051767431818
  0.2208848823190162  0.2621723165132399  0.5092537486237724
  0.2627834870545959  0.2395207752562695  0.9894884646005646
  0.2891025954406071  0.7317098070172843  0.4986698843088735
  0.2176731453736299  0.7685006028917966 -0.0005907359005989
  0.7784129258003399  0.2239199202132462  0.5014341338284932
  0.7128952909629118  0.2739449634754321  0.0015103284036206
  0.7310005741078079  0.7967469782502029  0.5003552107251314
  0.7783843920012552  0.7033838564614565  0.0020646722510830
  0.2819183454016098  0.5114650677127935  0.2242405011498955
  0.2871138878127626  0.4996245124378903  0.7671176723018541
  0.2307178984991970  0.9885630943158865  0.2674743507523857
  0.2118984545156086  0.9996331468384867  0.7316755883377187
  0.7178103755803461  0.4994580121286545  0.2854706321187307
  0.7075469600478004  0.4977713127439326  0.7147179375858598
  0.7838223749275439 -0.0003352294323753  0.2177537428158716
  0.7920926144735627 -0.0005762338027298  0.7857514311031231
  0.5102251850573941  0.2170608764333081  0.2757508693433269
  0.4956055679907866  0.2115046705669400  0.7223999971722319
  0.5034243835787134  0.7816507933121793  0.2176986109607543
  0.5017477778991587  0.7893051551317927  0.7880142862667333
  0.9871722384902163  0.2777814234698927  0.2295699058123145
  0.9958545461261857  0.2888504958666124  0.7771342732928004
  0.0039801854976977  0.7179879762501865  0.2817007545967334
  0.0036530148636862  0.7098567560823987  0.7161431780055302

  0.00000000E+00  0.00000000E+00  0.00000000E+00
  0.00000000E+00  0.00000000E+00  0.00000000E+00
  0.00000000E+00  0.00000000E+00  0.00000000E+00
  0.00000000E+00  0.00000000E+00  0.00000000E+00
  0.00000000E+00  0.00000000E+00  0.00000000E+00
  0.00000000E+00  0.00000000E+00  0.00000000E+00
  0.00000000E+00  0.00000000E+00  0.00000000E+00
  0.00000000E+00  0.00000000E+00  0.00000000E+00
  0.00000000E+00  0.00000000E+00  0.00000000E+00
  0.00000000E+00  0.00000000E+00  0.00000000E+00
  0.00000000E+00  0.00000000E+00  0.00000000E+00
  0.00000000E+00  0.00000000E+00  0.00000000E+00
  0.00000000E+00  0.00000000E+00  0.00000000E+00
  0.00000000E+00  0.00000000E+00  0.00000000E+00
  0.00000000E+00  0.00000000E+00  0.00000000E+00
  0.00000000E+00  0.00000000E+00  0.00000000E+00
  0.00000000E+00  0.00000000E+00  0.00000000E+00
  0.00000000E+00  0.00000000E+00  0.00000000E+00
  0.00000000E+00  0.00000000E+00  0.00000000E+00
  0.00000000E+00  0.00000000E+00  0.00000000E+00
  0.00000000E+00  0.00000000E+00  0.00000000E+00
  0.00000000E+00  0.00000000E+00  0.00000000E+00
  0.00000000E+00  0.00000000E+00  0.00000000E+00
  0.00000000E+00  0.00000000E+00  0.00000000E+00
  0.00000000E+00  0.00000000E+00  0.00000000E+00
  0.00000000E+00  0.00000000E+00  0.00000000E+00
  0.00000000E+00  0.00000000E+00  0.00000000E+00
  0.00000000E+00  0.00000000E+00  0.00000000E+00
  0.00000000E+00  0.00000000E+00  0.00000000E+00
  0.00000000E+00  0.00000000E+00  0.00000000E+00
  0.00000000E+00  0.00000000E+00  0.00000000E+00
  0.00000000E+00  0.00000000E+00  0.00000000E+00
  0.00000000E+00  0.00000000E+00  0.00000000E+00
  0.00000000E+00  0.00000000E+00  0.00000000E+00
  0.00000000E+00  0.00000000E+00  0.00000000E+00
  0.00000000E+00  0.00000000E+00  0.00000000E+00
  0.00000000E+00  0.00000000E+00  0.00000000E+00
  0.00000000E+00  0.00000000E+00  0.00000000E+00
  0.00000000E+00  0.00000000E+00  0.00000000E+00
