Cs7 Pb8 Br25                            
   1.0000000000000000     
    11.9929599761999999    0.0000000000000000    0.0000000000000000
     0.0000000000000000   11.9929523467999992    0.0000000000000000
     0.0000000000000000    0.0000000000000000   11.9929523467999992
   Cs   Pb   Br
     7     8    25
Direct
  0.4835109933060083  0.4738054021009362 -0.0019910109069859
  0.4647712562478634  0.0082023526431434  0.4983814905894594
  0.5103045580280955  0.9774384762073173  0.0002604809759590
  0.0387642621107175  0.5038530786503258  0.4996246367417239
  0.0167448025972940  0.4910317245464652 -0.0006955434181438
  0.0067777156433115  0.0273504300090875  0.4978569817835167
  0.0313303912552426  0.9647397782563611 -0.0003176231281165
  0.2436560899833631  0.2481680790226760  0.2478666813337751
  0.2432858199400805  0.2484040912956484  0.7508800887492941
  0.2502224859802736  0.7485280084471793  0.2511601222418305
  0.2495838483409399  0.7495601971169130  0.7480249158081406
  0.7429579171255255  0.2403218179549702  0.2469186549407807
  0.7424014608324936  0.2347003890507153  0.7455349465604624
  0.7476036047419634  0.7680062691361397  0.2548986622619174
  0.7455158217801022  0.7647814552687809  0.7507605216529932
  0.2545098625712656  0.2487392642882912  0.4993975482794059
  0.2038646483640540  0.2344282504040927  0.9994009431173845
  0.2153189984991073  0.7560151421244761  0.4996201465290048
  0.2749820312556016  0.7638335969254165  0.9996772189583348
  0.7283920021028308  0.1739016545733367  0.5072661969051686
  0.7559542556057132  0.3099285179487539  0.0084604048342687
  0.7778031052106211  0.8181387718033326  0.4957218919466260
  0.7132528669088876  0.7076139061527631 -0.0051657254926136
  0.2647109104951335  0.4976304440959370  0.2246839181310934
  0.2632933878259588  0.4983191145391825  0.7730128512880676
  0.2063648571713299  0.9977664756057500  0.2584750806891998
  0.2048589678332626  0.9984997556625662  0.7391778913281308
  0.6995354452711804  0.5031739192549231  0.2871758373382779
  0.7007608916861510  0.5015006398288129  0.7159936521716825
  0.7848828208420602  0.0034304722118570  0.1861123806486094
  0.7835818495472345  0.0015101456923166  0.8161037738241284
  0.4921153859823750  0.2085013382709582  0.2164583815257405
  0.4918591956269666  0.2115343061148527  0.7866849557595955
  0.4996589655853699  0.8050300706873135  0.2654986726622802
  0.4986397490062760  0.8069178314374843  0.7332079922004242
  0.9892244072071020  0.2844916101540307  0.2795798091791343
  0.9886052245833806  0.2852280857496289  0.7218920724058313
  0.9971035731556013  0.7160830836250535  0.2231939305276460
  0.9962900980530510  0.7172533248568955  0.7776478978944114
  0.6970054665144149  0.5016387229861616  0.5015582506816082

  0.00000000E+00  0.00000000E+00  0.00000000E+00
  0.00000000E+00  0.00000000E+00  0.00000000E+00
  0.00000000E+00  0.00000000E+00  0.00000000E+00
  0.00000000E+00  0.00000000E+00  0.00000000E+00
  0.00000000E+00  0.00000000E+00  0.00000000E+00
  0.00000000E+00  0.00000000E+00  0.00000000E+00
  0.00000000E+00  0.00000000E+00  0.00000000E+00
  0.00000000E+00  0.00000000E+00  0.00000000E+00
  0.00000000E+00  0.00000000E+00  0.00000000E+00
  0.00000000E+00  0.00000000E+00  0.00000000E+00
  0.00000000E+00  0.00000000E+00  0.00000000E+00
  0.00000000E+00  0.00000000E+00  0.00000000E+00
  0.00000000E+00  0.00000000E+00  0.00000000E+00
  0.00000000E+00  0.00000000E+00  0.00000000E+00
  0.00000000E+00  0.00000000E+00  0.00000000E+00
  0.00000000E+00  0.00000000E+00  0.00000000E+00
  0.00000000E+00  0.00000000E+00  0.00000000E+00
  0.00000000E+00  0.00000000E+00  0.00000000E+00
  0.00000000E+00  0.00000000E+00  0.00000000E+00
  0.00000000E+00  0.00000000E+00  0.00000000E+00
  0.00000000E+00  0.00000000E+00  0.00000000E+00
  0.00000000E+00  0.00000000E+00  0.00000000E+00
  0.00000000E+00  0.00000000E+00  0.00000000E+00
  0.00000000E+00  0.00000000E+00  0.00000000E+00
  0.00000000E+00  0.00000000E+00  0.00000000E+00
  0.00000000E+00  0.00000000E+00  0.00000000E+00
  0.00000000E+00  0.00000000E+00  0.00000000E+00
  0.00000000E+00  0.00000000E+00  0.00000000E+00
  0.00000000E+00  0.00000000E+00  0.00000000E+00
  0.00000000E+00  0.00000000E+00  0.00000000E+00
  0.00000000E+00  0.00000000E+00  0.00000000E+00
  0.00000000E+00  0.00000000E+00  0.00000000E+00
  0.00000000E+00  0.00000000E+00  0.00000000E+00
  0.00000000E+00  0.00000000E+00  0.00000000E+00
  0.00000000E+00  0.00000000E+00  0.00000000E+00
  0.00000000E+00  0.00000000E+00  0.00000000E+00
  0.00000000E+00  0.00000000E+00  0.00000000E+00
  0.00000000E+00  0.00000000E+00  0.00000000E+00
  0.00000000E+00  0.00000000E+00  0.00000000E+00
  0.00000000E+00  0.00000000E+00  0.00000000E+00
