Cs7 Pb9 Br24                            
   1.0000000000000000     
    11.9929599761999999    0.0000000000000000    0.0000000000000000
     0.0000000000000000   11.9929523467999992    0.0000000000000000
     0.0000000000000000    0.0000000000000000   11.9929523467999992
   Cs   Pb   Br
     7     9    24
Direct
  0.5001896084321624  0.4666462395107877  0.5269417406667768
  0.4997633262446707  0.4745559314264179  0.0299524815813511
  0.5005171445690892  0.9785178482301677  0.5039946448253094
  0.4978281235045768  0.0101513453901822  0.0375267685622433
  0.9980757992450552  0.4943957701473062  0.4698756403442809
  0.0002573321313704  0.5022427039918077  0.0053402270833090
  0.0000985130734479  0.0371791275680912  0.4661202314723157
  0.0012999104976458  0.9056441306813267  0.8770723731561887
  0.2495836714990913  0.2542871303925136  0.2503804538763911
  0.2475377998136993  0.2522942373634477  0.7529687189577966
  0.2490046789064302  0.7549530141694917  0.2546481517652868
  0.2654344676798992  0.7428127657801452  0.7463506311688844
  0.7492278779652096  0.2538157568579773  0.2503503489698910
  0.7517533681606522  0.2515838383240225  0.7537320470463426
  0.7521578696727000  0.7550289296774693  0.2543604895553192
  0.7354377921007753  0.7426515103817201  0.7469751066499652
  0.2264565098970800  0.2863886541755387  0.5023432786548624
  0.2827551863472896  0.2294208614699791  0.0020426657110955
  0.3028434205545559  0.7185285711738106  0.5018652221866520
  0.1891699808323122  0.7829556401847984 -0.0010734951402476
  0.7718336870193662  0.2845618836821128  0.5028323043085289
  0.7144554916242807  0.2280653376894601  0.0023628442358891
  0.6997439727811647  0.7176864886742882  0.5019089745418958
  0.8128040054389948  0.7829256677720887 -0.0012319909237626
  0.2319870881835525  0.5056960423684010  0.2169547549091644
  0.3019829299255353  0.5005863147322265  0.7840187538981261
  0.2731445599879661  0.0042757727390436  0.2914430028015561
  0.1868920105747711 -0.0016886901308709  0.7232301246693214
  0.7679766712333151  0.5056251171692719  0.2170950866580639
  0.6988009251187158  0.4998964337312870  0.7846719554501583
  0.7271904041244538  0.0040815693277690  0.2915450557270250
  0.8142266101948152 -0.0021863267853495  0.7238294404621683
  0.4993999669817540  0.2747457928923624  0.2780017816513788
  0.4995966055470251  0.2058424438630817  0.7184779045434941
  0.5006196061872248  0.7452179800835200  0.1980119781488188
  0.5004703849582159  0.8154590351928592  0.7888425618732224
  0.9993787223496545  0.2515867175692097  0.2355695772149810
  0.9997077416860343  0.3082565555144003  0.7671804879137097
  0.0004275182235273  0.7629023377354409  0.3133407636466753
 -0.0000313182074773  0.7124094967779164  0.7301468871524904

  0.00000000E+00  0.00000000E+00  0.00000000E+00
  0.00000000E+00  0.00000000E+00  0.00000000E+00
  0.00000000E+00  0.00000000E+00  0.00000000E+00
  0.00000000E+00  0.00000000E+00  0.00000000E+00
  0.00000000E+00  0.00000000E+00  0.00000000E+00
  0.00000000E+00  0.00000000E+00  0.00000000E+00
  0.00000000E+00  0.00000000E+00  0.00000000E+00
  0.00000000E+00  0.00000000E+00  0.00000000E+00
  0.00000000E+00  0.00000000E+00  0.00000000E+00
  0.00000000E+00  0.00000000E+00  0.00000000E+00
  0.00000000E+00  0.00000000E+00  0.00000000E+00
  0.00000000E+00  0.00000000E+00  0.00000000E+00
  0.00000000E+00  0.00000000E+00  0.00000000E+00
  0.00000000E+00  0.00000000E+00  0.00000000E+00
  0.00000000E+00  0.00000000E+00  0.00000000E+00
  0.00000000E+00  0.00000000E+00  0.00000000E+00
  0.00000000E+00  0.00000000E+00  0.00000000E+00
  0.00000000E+00  0.00000000E+00  0.00000000E+00
  0.00000000E+00  0.00000000E+00  0.00000000E+00
  0.00000000E+00  0.00000000E+00  0.00000000E+00
  0.00000000E+00  0.00000000E+00  0.00000000E+00
  0.00000000E+00  0.00000000E+00  0.00000000E+00
  0.00000000E+00  0.00000000E+00  0.00000000E+00
  0.00000000E+00  0.00000000E+00  0.00000000E+00
  0.00000000E+00  0.00000000E+00  0.00000000E+00
  0.00000000E+00  0.00000000E+00  0.00000000E+00
  0.00000000E+00  0.00000000E+00  0.00000000E+00
  0.00000000E+00  0.00000000E+00  0.00000000E+00
  0.00000000E+00  0.00000000E+00  0.00000000E+00
  0.00000000E+00  0.00000000E+00  0.00000000E+00
  0.00000000E+00  0.00000000E+00  0.00000000E+00
  0.00000000E+00  0.00000000E+00  0.00000000E+00
  0.00000000E+00  0.00000000E+00  0.00000000E+00
  0.00000000E+00  0.00000000E+00  0.00000000E+00
  0.00000000E+00  0.00000000E+00  0.00000000E+00
  0.00000000E+00  0.00000000E+00  0.00000000E+00
  0.00000000E+00  0.00000000E+00  0.00000000E+00
  0.00000000E+00  0.00000000E+00  0.00000000E+00
  0.00000000E+00  0.00000000E+00  0.00000000E+00
  0.00000000E+00  0.00000000E+00  0.00000000E+00
