-50.0% N(Distort)=2 ~[0.5,0.5,0.6]      
   1.0000000000000000     
    17.7788800000000009    0.0000000000000000    0.0000000000000000
     0.0000000000000000   17.9504599999999996    0.0000000000000000
     0.0000000000000000    0.0000000000000000   12.7661599999999993
   Cs   Te   Pb   I 
    16     1    16    48
Direct
  0.2485511098740197  0.2267641951663484  0.1969209687229976
  0.2538869645536787  0.7190761178694566  0.2483968348553138
  0.7555641168716964  0.2239257680538328  0.2567568372316922
  0.7654602162544725  0.7181572923520531  0.2556095810895994
  0.0037938411666938  0.0271143963235618  0.7493256106528464
  0.0173731819310337  0.5389041933198384  0.7499406256845242
  0.5162318362711296  0.0365549403332517  0.7531859777949879
  0.5026563421756322  0.5270106434131971  0.7451255618388622
  0.2375594079699976  0.2869384314064506  0.7622148131057032
  0.2449935969412779  0.7822030687529584  0.7512972234806592
  0.7428760908096762  0.2852288213944033  0.7481139990860448
  0.7403969744760317  0.7840801913859035  0.7495467753726553
  0.5100064725067694  0.4805617489107731  0.2249498169907479
  0.4912533695555180  0.9648241181714236  0.2381299751502065
  0.9871908972541295  0.4674122642852321  0.2546542059355157
  0.9992317501945666  0.9743475271001275  0.2556367343553078
  0.3954147994439388  0.4152151926606577  0.4752208310983904
  0.9971495491682969  0.2494061652969377  0.9995154704942758
  0.9990040010280493  0.7547218528221019  0.0011832846705301
  0.5034846472231878  0.2527589991525189  0.9954149569862426
  0.5020906730894098  0.7508786507911251  0.9978365451061771
  0.2532274380816618  0.9998484235429376  0.9967300440568176
  0.2467073551650822  0.5049794796795302  0.0034794988130410
  0.7502556821830733  0.0021484893127120  0.0025079703185064
  0.7553733681544259  0.5025083063653729  0.9970808141250203
  0.0031288514312381  0.2481781707867765  0.5032188515079825
  0.0007142969250524  0.7557577350131175  0.5017259370212672
  0.4938606770588199  0.2440868072921165  0.4949469711365144
  0.5038380342935536  0.7526109110766735  0.4978047883083523
  0.2573273719381654  0.0012691033608880  0.5003643873125402
  0.2474680613428181  0.5050285975766183  0.5030659498881402
  0.7482745715137821  0.0036758055817538  0.4991453573791089
  0.7532579365160571  0.5006706518400680  0.5047155139586033
  0.1435436780392102  0.1401971995480004  0.5565742956605728
  0.1486799495461018  0.6593791092748352  0.5378684871065820
  0.6504557538799096  0.1560493040447624  0.5359450010351374
  0.6507366514089933  0.6491154471509166  0.5390024192179362
  0.3580016547083407  0.3625381297576759  0.0238805029882268
  0.3521788322620725  0.8515462939023507  0.0405132074854101
  0.8506262888162625  0.3502658072302970  0.0394940362942504
  0.8491751516424252  0.8538185201449487  0.0416832865366344
  0.1449856082099056  0.1441446035746195  0.9528715320791987
  0.1484843898609372  0.6544110023648116  0.9652446092140475
  0.6515432700303316  0.1530174709079915  0.9611775783693403
  0.6498037185537350  0.6477781703392913  0.9610714025884122
  0.3084569043309465  0.2714196412394774  0.4744399340160579
  0.3497358572769217  0.8478508496165260  0.4583514382216417
  0.8554522430476499  0.3528926225502523  0.4659467493754732
  0.8506323503510814  0.8580815622058705  0.4612690536330608
  0.2203888849291027  0.0129800773273717  0.2504945217820312
  0.2093436781654191  0.5026419454315632  0.2517923030042076
  0.7085264191554446  0.0097515295648506  0.2505055109803770
  0.7259840658647906  0.5028906840372728  0.2505981375356522
  0.0355744471314579  0.2525166412241113  0.2515753293821019
  0.0356009721334648  0.7591621315395792  0.2507310576816054
  0.5336239604980061  0.2609810909907763  0.2464663449230494
  0.5441807546657734  0.7528556347121951  0.2482828174286026
  0.4008004432322387  0.1051459047615371  0.0329546988206213
  0.3952275850144156  0.6073695434332809  0.0381096830053651
  0.8996623685051710  0.1009550360694813  0.0431022211621677
  0.9033824025899173  0.6027277329492459  0.0391889540321610
  0.4244093209059286  0.0784577465636163  0.4756273448725412
  0.4045161789860757  0.6044396425820555  0.4522757730615513
  0.8986907664858573  0.1043033920845293  0.4615188983974230
  0.9036791268269708  0.6055346912281446  0.4655768596430142
  0.1046471946724539  0.3986606191853502  0.5435794498046058
  0.1059002754504926  0.9023818285110999  0.5368254174726695
  0.6097932079883146  0.3986802714967736  0.5416356881957006
  0.6038881860284769  0.8995129076060314  0.5424724753129726
  0.1011612334995005  0.3984059291364379  0.9658554158043376
  0.1029694931599703  0.9009434883912957  0.9632544946939154
  0.6055307028277936  0.4010858182068550  0.9557860819119360
  0.6014570549026377  0.9000322058223922  0.9613986150527294
  0.4621657648459078  0.2504457792769412  0.7464812256130177
  0.4646976292367119  0.7436556024327868  0.7483757754959435
  0.9605483958782108  0.2443126232813505  0.7520178229899954
  0.9615037914780339  0.7528813503086733  0.7516233265543929
  0.2788123252873747  0.5076621787155380  0.7529292570317438
  0.2959754970652110  0.9929075651977071  0.7510836379797080
  0.7981302798748897  0.4982407303792917  0.7515310199339934
  0.7835826631845346  0.9998662148353941  0.7510995002532579

  0.00000000E+00  0.00000000E+00  0.00000000E+00
  0.00000000E+00  0.00000000E+00  0.00000000E+00
  0.00000000E+00  0.00000000E+00  0.00000000E+00
  0.00000000E+00  0.00000000E+00  0.00000000E+00
  0.00000000E+00  0.00000000E+00  0.00000000E+00
  0.00000000E+00  0.00000000E+00  0.00000000E+00
  0.00000000E+00  0.00000000E+00  0.00000000E+00
  0.00000000E+00  0.00000000E+00  0.00000000E+00
  0.00000000E+00  0.00000000E+00  0.00000000E+00
  0.00000000E+00  0.00000000E+00  0.00000000E+00
  0.00000000E+00  0.00000000E+00  0.00000000E+00
  0.00000000E+00  0.00000000E+00  0.00000000E+00
  0.00000000E+00  0.00000000E+00  0.00000000E+00
  0.00000000E+00  0.00000000E+00  0.00000000E+00
  0.00000000E+00  0.00000000E+00  0.00000000E+00
  0.00000000E+00  0.00000000E+00  0.00000000E+00
  0.00000000E+00  0.00000000E+00  0.00000000E+00
  0.00000000E+00  0.00000000E+00  0.00000000E+00
  0.00000000E+00  0.00000000E+00  0.00000000E+00
  0.00000000E+00  0.00000000E+00  0.00000000E+00
  0.00000000E+00  0.00000000E+00  0.00000000E+00
  0.00000000E+00  0.00000000E+00  0.00000000E+00
  0.00000000E+00  0.00000000E+00  0.00000000E+00
  0.00000000E+00  0.00000000E+00  0.00000000E+00
  0.00000000E+00  0.00000000E+00  0.00000000E+00
  0.00000000E+00  0.00000000E+00  0.00000000E+00
  0.00000000E+00  0.00000000E+00  0.00000000E+00
  0.00000000E+00  0.00000000E+00  0.00000000E+00
  0.00000000E+00  0.00000000E+00  0.00000000E+00
  0.00000000E+00  0.00000000E+00  0.00000000E+00
  0.00000000E+00  0.00000000E+00  0.00000000E+00
  0.00000000E+00  0.00000000E+00  0.00000000E+00
  0.00000000E+00  0.00000000E+00  0.00000000E+00
  0.00000000E+00  0.00000000E+00  0.00000000E+00
  0.00000000E+00  0.00000000E+00  0.00000000E+00
  0.00000000E+00  0.00000000E+00  0.00000000E+00
  0.00000000E+00  0.00000000E+00  0.00000000E+00
  0.00000000E+00  0.00000000E+00  0.00000000E+00
  0.00000000E+00  0.00000000E+00  0.00000000E+00
  0.00000000E+00  0.00000000E+00  0.00000000E+00
  0.00000000E+00  0.00000000E+00  0.00000000E+00
  0.00000000E+00  0.00000000E+00  0.00000000E+00
  0.00000000E+00  0.00000000E+00  0.00000000E+00
  0.00000000E+00  0.00000000E+00  0.00000000E+00
  0.00000000E+00  0.00000000E+00  0.00000000E+00
  0.00000000E+00  0.00000000E+00  0.00000000E+00
  0.00000000E+00  0.00000000E+00  0.00000000E+00
  0.00000000E+00  0.00000000E+00  0.00000000E+00
  0.00000000E+00  0.00000000E+00  0.00000000E+00
  0.00000000E+00  0.00000000E+00  0.00000000E+00
  0.00000000E+00  0.00000000E+00  0.00000000E+00
  0.00000000E+00  0.00000000E+00  0.00000000E+00
  0.00000000E+00  0.00000000E+00  0.00000000E+00
  0.00000000E+00  0.00000000E+00  0.00000000E+00
  0.00000000E+00  0.00000000E+00  0.00000000E+00
  0.00000000E+00  0.00000000E+00  0.00000000E+00
  0.00000000E+00  0.00000000E+00  0.00000000E+00
  0.00000000E+00  0.00000000E+00  0.00000000E+00
  0.00000000E+00  0.00000000E+00  0.00000000E+00
  0.00000000E+00  0.00000000E+00  0.00000000E+00
  0.00000000E+00  0.00000000E+00  0.00000000E+00
  0.00000000E+00  0.00000000E+00  0.00000000E+00
  0.00000000E+00  0.00000000E+00  0.00000000E+00
  0.00000000E+00  0.00000000E+00  0.00000000E+00
  0.00000000E+00  0.00000000E+00  0.00000000E+00
  0.00000000E+00  0.00000000E+00  0.00000000E+00
  0.00000000E+00  0.00000000E+00  0.00000000E+00
  0.00000000E+00  0.00000000E+00  0.00000000E+00
  0.00000000E+00  0.00000000E+00  0.00000000E+00
  0.00000000E+00  0.00000000E+00  0.00000000E+00
  0.00000000E+00  0.00000000E+00  0.00000000E+00
  0.00000000E+00  0.00000000E+00  0.00000000E+00
  0.00000000E+00  0.00000000E+00  0.00000000E+00
  0.00000000E+00  0.00000000E+00  0.00000000E+00
  0.00000000E+00  0.00000000E+00  0.00000000E+00
  0.00000000E+00  0.00000000E+00  0.00000000E+00
  0.00000000E+00  0.00000000E+00  0.00000000E+00
  0.00000000E+00  0.00000000E+00  0.00000000E+00
  0.00000000E+00  0.00000000E+00  0.00000000E+00
  0.00000000E+00  0.00000000E+00  0.00000000E+00
  0.00000000E+00  0.00000000E+00  0.00000000E+00
