-30.0% N(Distort)=2 ~[0.5,0.5,0.6]      
   1.0000000000000000     
    17.7788800000000009    0.0000000000000000    0.0000000000000000
     0.0000000000000000   17.9504599999999996    0.0000000000000000
     0.0000000000000000    0.0000000000000000   12.7661599999999993
   Cs   Pb   S    I 
    16    16     1    48
Direct
  0.2524044740541931  0.2169601618716887  0.2186082177971140
  0.2565117005263786  0.7236441581796870  0.2478644128656976
  0.7612613570650045  0.2218382628658286  0.2554522005969516
  0.7642573819197184  0.7158416140991458  0.2501242241857771
  0.0108203840972556  0.0318663121021591  0.7495043802090117
  0.0190487438154382  0.5345545847276488  0.7464950929341042
  0.5140525181212766  0.0348132123120160  0.7546307519064585
  0.4945257800249662  0.5187447648986929  0.7277201782890947
  0.2398899868973654  0.2849104846466129  0.7657867155974177
  0.2483050457671612  0.7814519016150115  0.7511552185929184
  0.7457901672255632  0.2858833985975734  0.7532277973409609
  0.7413312684582621  0.7819487597783217  0.7475461094818637
  0.4986942052688582  0.4741660949316763  0.2476578605216683
  0.4957917527248554  0.9673233190027454  0.2398713369584599
  0.9910209536234603  0.4682888447202196  0.2522489953755456
  0.9957413913551300  0.9702666502248873  0.2505448091381373
  0.9994733045154827  0.2509845710237721  0.9994900186634849
  0.0006308961767924  0.7516507441500053  0.9998585867346990
  0.5043456396921052  0.2530854893671818  0.9975547866518141
  0.5045112323787216  0.7486031603862969  0.9986701503711951
  0.2537048422397208  0.9984770839822561  0.9981459058336410
  0.2501117450991655  0.5041441160812908  0.0039646532423199
  0.7526620476863535  0.0009330796061649  0.0009076649613464
  0.7530709154175398  0.5018046872099758  0.9976187488559576
  0.0066764149460683  0.2503160763850766  0.5009777252700813
  0.0034767070823376  0.7534088131391991  0.5020243216323753
  0.5074688592691721  0.2416569765575654  0.4989058023478964
  0.5063059401120442  0.7546774171145614  0.4993734669763651
  0.2564437958273718  0.0003543035507609  0.5004272311152055
  0.2570544109757298  0.5048263514275227  0.4974173416032536
  0.7554323076788803  0.0000645999865709  0.4999708004056951
  0.7549873702166174  0.5003763741210979  0.5018771702182802
  0.3849891882952772  0.4282225727197285  0.4762695560657664
  0.1552573639840746  0.1491173368472385  0.5425083649191901
  0.1496211233023066  0.6583373084005182  0.5387583163949335
  0.6578387239615668  0.1521032887526284  0.5425556718146242
  0.6511187589759003  0.6469776706905143  0.5363408338410838
  0.3546623231601881  0.3564252090943715  0.0346003091657120
  0.3549508237889453  0.8514934293164124  0.0364782877241455
  0.8509309493090014  0.3498589097466368  0.0373318036046877
  0.8519819055902095  0.8529824632269779  0.0411627889258375
  0.1478007877147779  0.1453223133600913  0.9606044511722989
  0.1510281838616672  0.6532416523184550  0.9642566190816925
  0.6521656780503057  0.1515314236124786  0.9618844823718908
  0.6554641375246588  0.6513178389335446  0.9656709541123651
  0.3291441756793336  0.2906395703234455  0.4816802746995327
  0.3531451170924602  0.8504427296926611  0.4615729296530510
  0.8581518660261441  0.3527633706261650  0.4646890464207781
  0.8511389051306344  0.8527841780571773  0.4594958281431348
  0.2184407764379935  0.0035260986235928  0.2498232812316796
  0.2109090672277955  0.5082417543711782  0.2505418891787070
  0.7144197210809330  0.0083380603521351  0.2506724445997012
  0.7206483489131236  0.5011789560802502  0.2494977712986406
  0.0372633291123310  0.2535260616835331  0.2501679256534938
  0.0366571164704970  0.7562052802382405  0.2502451919743769
  0.5386166639726885  0.2568218370737669  0.2515593978448727
  0.5443278738004380  0.7557289934548818  0.2495777673267676
  0.4012389997117319  0.1040868012348700  0.0352522022556276
  0.3996447260260143  0.6037973487532926  0.0402538372383949
  0.9012559472990848  0.1015303103495712  0.0398772954674180
  0.9034704770014572  0.6009103247343328  0.0381046330925469
  0.4193029597592727  0.0858855320591657  0.4716320078583717
  0.4010010273549585  0.6128053006081730  0.4544182945921510
  0.9049637644229929  0.1015678643993393  0.4633244520089117
  0.9038752741332738  0.6037957037847784  0.4632822009802580
  0.1103192415867584  0.3964613587028876  0.5361946433539433
  0.1047036923939557  0.9034296239914015  0.5367698514762733
  0.6096563190425671  0.3951049665023468  0.5350336023337812
  0.6060783674433660  0.9023860302122259  0.5431940649316173
  0.1015304381562508  0.3999430212398220  0.9674875095996807
  0.1040835515348496  0.8990810612442852  0.9605126645684794
  0.6018030642253144  0.4034045548641741  0.9557224853721257
  0.6033752125549325  0.8992734939259303  0.9609640149444797
  0.4658823388057709  0.2497460793693358  0.7515109899954366
  0.4681219463281571  0.7397513726160821  0.7496576263312181
  0.9660046091238210  0.2468253034843076  0.7505529515663835
  0.9621595797126142  0.7484594253585182  0.7507092863980454
  0.2753264989786058  0.5039474451753077  0.7528085668156451
  0.2934553596596867  0.9949645521676633  0.7502542097678779
  0.7964909333682121  0.4985575391099316  0.7499786994081532
  0.7911734296019939  0.9962186471576058  0.7510696306520519

  0.00000000E+00  0.00000000E+00  0.00000000E+00
  0.00000000E+00  0.00000000E+00  0.00000000E+00
  0.00000000E+00  0.00000000E+00  0.00000000E+00
  0.00000000E+00  0.00000000E+00  0.00000000E+00
  0.00000000E+00  0.00000000E+00  0.00000000E+00
  0.00000000E+00  0.00000000E+00  0.00000000E+00
  0.00000000E+00  0.00000000E+00  0.00000000E+00
  0.00000000E+00  0.00000000E+00  0.00000000E+00
  0.00000000E+00  0.00000000E+00  0.00000000E+00
  0.00000000E+00  0.00000000E+00  0.00000000E+00
  0.00000000E+00  0.00000000E+00  0.00000000E+00
  0.00000000E+00  0.00000000E+00  0.00000000E+00
  0.00000000E+00  0.00000000E+00  0.00000000E+00
  0.00000000E+00  0.00000000E+00  0.00000000E+00
  0.00000000E+00  0.00000000E+00  0.00000000E+00
  0.00000000E+00  0.00000000E+00  0.00000000E+00
  0.00000000E+00  0.00000000E+00  0.00000000E+00
  0.00000000E+00  0.00000000E+00  0.00000000E+00
  0.00000000E+00  0.00000000E+00  0.00000000E+00
  0.00000000E+00  0.00000000E+00  0.00000000E+00
  0.00000000E+00  0.00000000E+00  0.00000000E+00
  0.00000000E+00  0.00000000E+00  0.00000000E+00
  0.00000000E+00  0.00000000E+00  0.00000000E+00
  0.00000000E+00  0.00000000E+00  0.00000000E+00
  0.00000000E+00  0.00000000E+00  0.00000000E+00
  0.00000000E+00  0.00000000E+00  0.00000000E+00
  0.00000000E+00  0.00000000E+00  0.00000000E+00
  0.00000000E+00  0.00000000E+00  0.00000000E+00
  0.00000000E+00  0.00000000E+00  0.00000000E+00
  0.00000000E+00  0.00000000E+00  0.00000000E+00
  0.00000000E+00  0.00000000E+00  0.00000000E+00
  0.00000000E+00  0.00000000E+00  0.00000000E+00
  0.00000000E+00  0.00000000E+00  0.00000000E+00
  0.00000000E+00  0.00000000E+00  0.00000000E+00
  0.00000000E+00  0.00000000E+00  0.00000000E+00
  0.00000000E+00  0.00000000E+00  0.00000000E+00
  0.00000000E+00  0.00000000E+00  0.00000000E+00
  0.00000000E+00  0.00000000E+00  0.00000000E+00
  0.00000000E+00  0.00000000E+00  0.00000000E+00
  0.00000000E+00  0.00000000E+00  0.00000000E+00
  0.00000000E+00  0.00000000E+00  0.00000000E+00
  0.00000000E+00  0.00000000E+00  0.00000000E+00
  0.00000000E+00  0.00000000E+00  0.00000000E+00
  0.00000000E+00  0.00000000E+00  0.00000000E+00
  0.00000000E+00  0.00000000E+00  0.00000000E+00
  0.00000000E+00  0.00000000E+00  0.00000000E+00
  0.00000000E+00  0.00000000E+00  0.00000000E+00
  0.00000000E+00  0.00000000E+00  0.00000000E+00
  0.00000000E+00  0.00000000E+00  0.00000000E+00
  0.00000000E+00  0.00000000E+00  0.00000000E+00
  0.00000000E+00  0.00000000E+00  0.00000000E+00
  0.00000000E+00  0.00000000E+00  0.00000000E+00
  0.00000000E+00  0.00000000E+00  0.00000000E+00
  0.00000000E+00  0.00000000E+00  0.00000000E+00
  0.00000000E+00  0.00000000E+00  0.00000000E+00
  0.00000000E+00  0.00000000E+00  0.00000000E+00
  0.00000000E+00  0.00000000E+00  0.00000000E+00
  0.00000000E+00  0.00000000E+00  0.00000000E+00
  0.00000000E+00  0.00000000E+00  0.00000000E+00
  0.00000000E+00  0.00000000E+00  0.00000000E+00
  0.00000000E+00  0.00000000E+00  0.00000000E+00
  0.00000000E+00  0.00000000E+00  0.00000000E+00
  0.00000000E+00  0.00000000E+00  0.00000000E+00
  0.00000000E+00  0.00000000E+00  0.00000000E+00
  0.00000000E+00  0.00000000E+00  0.00000000E+00
  0.00000000E+00  0.00000000E+00  0.00000000E+00
  0.00000000E+00  0.00000000E+00  0.00000000E+00
  0.00000000E+00  0.00000000E+00  0.00000000E+00
  0.00000000E+00  0.00000000E+00  0.00000000E+00
  0.00000000E+00  0.00000000E+00  0.00000000E+00
  0.00000000E+00  0.00000000E+00  0.00000000E+00
  0.00000000E+00  0.00000000E+00  0.00000000E+00
  0.00000000E+00  0.00000000E+00  0.00000000E+00
  0.00000000E+00  0.00000000E+00  0.00000000E+00
  0.00000000E+00  0.00000000E+00  0.00000000E+00
  0.00000000E+00  0.00000000E+00  0.00000000E+00
  0.00000000E+00  0.00000000E+00  0.00000000E+00
  0.00000000E+00  0.00000000E+00  0.00000000E+00
  0.00000000E+00  0.00000000E+00  0.00000000E+00
  0.00000000E+00  0.00000000E+00  0.00000000E+00
  0.00000000E+00  0.00000000E+00  0.00000000E+00
