-50.0% N(Distort)=1 ~[0.5,0.5,0.6]      
   1.0000000000000000     
    17.7788800000000009    0.0000000000000000    0.0000000000000000
     0.0000000000000000   17.9504599999999996    0.0000000000000000
     0.0000000000000000    0.0000000000000000   12.7661599999999993
   Cs   Pb   I    F 
    16    16    48     1
Direct
  0.2540366132679319  0.2159436356764713  0.2381879454270816
  0.2414529670500676  0.7298201221865529  0.2498022541440091
  0.7600527797927470  0.2186347661387376  0.2538333425155303
  0.7673916127735569  0.7187592488567415  0.2518566792740796
  0.0069628959251045  0.0352220135935860  0.7478816447212914
  0.0177177862293183  0.5248979262011764  0.7409659315499466
  0.5062462764474877  0.0359523703800372  0.7454039540093932
  0.5191248356540022  0.5269708957342636  0.7563763334711531
  0.2369751859382720  0.2867655471747987  0.7502563674440494
  0.2413553095761918  0.7761875979334090  0.7496043843679097
  0.7449734134790373  0.2805702692514930  0.7468552182102123
  0.7413998317509348  0.7826013419652106  0.7461214484182919
  0.4980679875017203  0.4631536021225103  0.2411416510179186
  0.4913642716820626  0.9751191080237746  0.2486237956388868
  0.9995698752775739  0.4655426892407073  0.2555974084700148
  0.9888986338569858  0.9758799337330988  0.2523933494695786
  0.9999098519961072  0.2503980745840456  0.0026008522284201
  0.9985949413310238  0.7507550496411235  0.9992037184812769
  0.5002673397547595  0.2498697917093486  0.9968249536359978
  0.5021919091245045  0.7499018169982463  0.9988725671269445
  0.2494383240786128  0.9976540832610273  0.9974176321149206
  0.2493588611564395  0.5029359632708210  0.0161482928770419
  0.7477177556437736  0.9990853346400269  0.9975634768256834
  0.7547540032562082  0.5014254431760812  0.0002644802710888
  0.0050485933813935  0.2549910471078659  0.5030315606910076
  0.0049161996958581  0.7495201633251646  0.5043806509917497
  0.5019733753943538  0.2514365651802945  0.4986227755951406
  0.5040140032793570  0.7528455276047510  0.4946809794284905
  0.2512001564508343  0.9997147257369002  0.4998338493344345
  0.3052677883618627  0.5039125965767889  0.5248097727956411
  0.7513579390175357  0.9994625366418285  0.4988767207632618
  0.7537161273344396  0.5009228196404474  0.4990200489720751
  0.1498311754189100  0.1481168160853338  0.5406837224320975
  0.1483249866735625  0.6533856948357314  0.5281542610851607
  0.6483976228334108  0.1487897546719649  0.5388144872516716
  0.6509969379906596  0.6495571827498114  0.5326282027728150
  0.3508801578673773  0.3532059214162984  0.0337592980719771
  0.3515703047347088  0.8498332440815292  0.0358583821214141
  0.8517040895862474  0.3503076017830081  0.0411173524810232
  0.8468106919716515  0.8511880467093265  0.0306488233191988
  0.1491436177711439  0.1475457162699259  0.9596397817255610
  0.1497890803966867  0.6546950454833221  0.9781378665228617
  0.6461809611161717  0.1480007287692623  0.9546050121848113
  0.6536022747103234  0.6503013460346023  0.9641162802329224
  0.3514627853843322  0.3441010741821233  0.4422629805279779
  0.3531148356171145  0.8543797245948025  0.4589577862319916
  0.8533900276006614  0.3524858919574965  0.4622949031281344
  0.8480735217173994  0.8525755247647326  0.4694102145788382
  0.2126881028789870  0.0005719553594798  0.2481815889907206
  0.2178723747160975  0.5065048860654988  0.2538462737846910
  0.7133616524167282  0.0045967200072220  0.2478381331997749
  0.7168012073289590  0.5050131059971862  0.2496046306185741
  0.0337280335354932  0.2448399789219689  0.2507235326881915
  0.0233268051999421  0.7612870318305973  0.2506460111084253
  0.5382601939384516  0.2464411264830477  0.2465965117013792
  0.5495440778037807  0.7669877794365378  0.2431005723082647
  0.3969091355758335  0.1017582148830800  0.0326184586546965
  0.4023697724567147  0.5991926307461746  0.0312721855655438
  0.8959827299644315  0.1012677649286937  0.0329375844723073
  0.9035246371770986  0.5986664981732631  0.0418307969896715
  0.3980292741056119  0.1029196242078299  0.4628296697791854
  0.3999967121174821  0.6230179693292163  0.3990232670596371
  0.8954709842824333  0.1021435532351396  0.4667082986389954
  0.9025038904038712  0.6004645372264239  0.4622825564808566
  0.1050226387760533  0.3936997750397126  0.5239691932053929
  0.0998077029845822  0.9013121591865654  0.5382054725160568
  0.6066426464749750  0.3961731550644061  0.5310056417934985
  0.5997035789563426  0.9021360020026673  0.5399520560753568
  0.0991196720499949  0.3986982299987191  0.9776356960424216
  0.0985821764599366  0.8996407892441847  0.9588279095930673
  0.6066171655546403  0.3944692113700839  0.9683867513343277
  0.5983754661996845  0.8995843574688830  0.9514697092949803
  0.4600859610685313  0.2514145564523649  0.7470289501336336
  0.4633906291203144  0.7402717964556313  0.7431875722910889
  0.9671098024906195  0.2523086266575135  0.7517701530664650
  0.9632383199611829  0.7394188327156960  0.7512712838997793
  0.2447064702347885  0.5056854745568000  0.7601391076396097
  0.2877040838408931  0.9915043786969258  0.7485593719853461
  0.7901866408625162  0.4956823754332623  0.7499879563436950
  0.7866506573480089  0.9981021861073757  0.7489299268816402
  0.4104237386591782  0.4955223936729833  0.6094954790062850

  0.00000000E+00  0.00000000E+00  0.00000000E+00
  0.00000000E+00  0.00000000E+00  0.00000000E+00
  0.00000000E+00  0.00000000E+00  0.00000000E+00
  0.00000000E+00  0.00000000E+00  0.00000000E+00
  0.00000000E+00  0.00000000E+00  0.00000000E+00
  0.00000000E+00  0.00000000E+00  0.00000000E+00
  0.00000000E+00  0.00000000E+00  0.00000000E+00
  0.00000000E+00  0.00000000E+00  0.00000000E+00
  0.00000000E+00  0.00000000E+00  0.00000000E+00
  0.00000000E+00  0.00000000E+00  0.00000000E+00
  0.00000000E+00  0.00000000E+00  0.00000000E+00
  0.00000000E+00  0.00000000E+00  0.00000000E+00
  0.00000000E+00  0.00000000E+00  0.00000000E+00
  0.00000000E+00  0.00000000E+00  0.00000000E+00
  0.00000000E+00  0.00000000E+00  0.00000000E+00
  0.00000000E+00  0.00000000E+00  0.00000000E+00
  0.00000000E+00  0.00000000E+00  0.00000000E+00
  0.00000000E+00  0.00000000E+00  0.00000000E+00
  0.00000000E+00  0.00000000E+00  0.00000000E+00
  0.00000000E+00  0.00000000E+00  0.00000000E+00
  0.00000000E+00  0.00000000E+00  0.00000000E+00
  0.00000000E+00  0.00000000E+00  0.00000000E+00
  0.00000000E+00  0.00000000E+00  0.00000000E+00
  0.00000000E+00  0.00000000E+00  0.00000000E+00
  0.00000000E+00  0.00000000E+00  0.00000000E+00
  0.00000000E+00  0.00000000E+00  0.00000000E+00
  0.00000000E+00  0.00000000E+00  0.00000000E+00
  0.00000000E+00  0.00000000E+00  0.00000000E+00
  0.00000000E+00  0.00000000E+00  0.00000000E+00
  0.00000000E+00  0.00000000E+00  0.00000000E+00
  0.00000000E+00  0.00000000E+00  0.00000000E+00
  0.00000000E+00  0.00000000E+00  0.00000000E+00
  0.00000000E+00  0.00000000E+00  0.00000000E+00
  0.00000000E+00  0.00000000E+00  0.00000000E+00
  0.00000000E+00  0.00000000E+00  0.00000000E+00
  0.00000000E+00  0.00000000E+00  0.00000000E+00
  0.00000000E+00  0.00000000E+00  0.00000000E+00
  0.00000000E+00  0.00000000E+00  0.00000000E+00
  0.00000000E+00  0.00000000E+00  0.00000000E+00
  0.00000000E+00  0.00000000E+00  0.00000000E+00
  0.00000000E+00  0.00000000E+00  0.00000000E+00
  0.00000000E+00  0.00000000E+00  0.00000000E+00
  0.00000000E+00  0.00000000E+00  0.00000000E+00
  0.00000000E+00  0.00000000E+00  0.00000000E+00
  0.00000000E+00  0.00000000E+00  0.00000000E+00
  0.00000000E+00  0.00000000E+00  0.00000000E+00
  0.00000000E+00  0.00000000E+00  0.00000000E+00
  0.00000000E+00  0.00000000E+00  0.00000000E+00
  0.00000000E+00  0.00000000E+00  0.00000000E+00
  0.00000000E+00  0.00000000E+00  0.00000000E+00
  0.00000000E+00  0.00000000E+00  0.00000000E+00
  0.00000000E+00  0.00000000E+00  0.00000000E+00
  0.00000000E+00  0.00000000E+00  0.00000000E+00
  0.00000000E+00  0.00000000E+00  0.00000000E+00
  0.00000000E+00  0.00000000E+00  0.00000000E+00
  0.00000000E+00  0.00000000E+00  0.00000000E+00
  0.00000000E+00  0.00000000E+00  0.00000000E+00
  0.00000000E+00  0.00000000E+00  0.00000000E+00
  0.00000000E+00  0.00000000E+00  0.00000000E+00
  0.00000000E+00  0.00000000E+00  0.00000000E+00
  0.00000000E+00  0.00000000E+00  0.00000000E+00
  0.00000000E+00  0.00000000E+00  0.00000000E+00
  0.00000000E+00  0.00000000E+00  0.00000000E+00
  0.00000000E+00  0.00000000E+00  0.00000000E+00
  0.00000000E+00  0.00000000E+00  0.00000000E+00
  0.00000000E+00  0.00000000E+00  0.00000000E+00
  0.00000000E+00  0.00000000E+00  0.00000000E+00
  0.00000000E+00  0.00000000E+00  0.00000000E+00
  0.00000000E+00  0.00000000E+00  0.00000000E+00
  0.00000000E+00  0.00000000E+00  0.00000000E+00
  0.00000000E+00  0.00000000E+00  0.00000000E+00
  0.00000000E+00  0.00000000E+00  0.00000000E+00
  0.00000000E+00  0.00000000E+00  0.00000000E+00
  0.00000000E+00  0.00000000E+00  0.00000000E+00
  0.00000000E+00  0.00000000E+00  0.00000000E+00
  0.00000000E+00  0.00000000E+00  0.00000000E+00
  0.00000000E+00  0.00000000E+00  0.00000000E+00
  0.00000000E+00  0.00000000E+00  0.00000000E+00
  0.00000000E+00  0.00000000E+00  0.00000000E+00
  0.00000000E+00  0.00000000E+00  0.00000000E+00
  0.00000000E+00  0.00000000E+00  0.00000000E+00
