-30.0% N(Distort)=2 ~[0.5,0.5,0.6]      
   1.0000000000000000     
    17.7788800000000009    0.0000000000000000    0.0000000000000000
     0.0000000000000000   17.9504599999999996    0.0000000000000000
     0.0000000000000000    0.0000000000000000   12.7661599999999993
   Cs   Pb   Se   I 
    16    16     1    48
Direct
  0.2519686184736354  0.2187471507663417  0.2141735253642043
  0.2556694147670387  0.7221729805541810  0.2470834231517169
  0.7603698256865558  0.2217726287611573  0.2553817494362087
  0.7659611416088251  0.7157218880118833  0.2512111917047561
  0.0105173787124256  0.0307379586748788  0.7488283769363957
  0.0179521443141965  0.5365107367560707  0.7482171347424095
  0.5147498248235202  0.0345029671861934  0.7543713252329999
  0.5002518394418383  0.5241482235286511  0.7378780658868297
  0.2396279595928470  0.2854067608648215  0.7632898169667922
  0.2483245659653150  0.7822570675944333  0.7525618415552570
  0.7455086683820279  0.2847759937478657  0.7521129923395058
  0.7411249207599850  0.7828521646320934  0.7486636882448444
  0.5056568341122030  0.4762265558397495  0.2356887870017312
  0.4958549600146990  0.9660408750727221  0.2392744349412717
  0.9888108357384049  0.4683220095663357  0.2533909421311070
  0.9964924820954848  0.9698861060747601  0.2522224034373569
  0.9997245720705147  0.2503285274833218  0.9997369916236333
  0.0007973348632338  0.7524112184737685  0.0001625235796477
  0.5038930825039072  0.2521589859092062  0.9966968649818204
  0.5043425673665646  0.7493828027834052  0.9984975734892215
  0.2539950337291902  0.9988528224744398  0.9976782582800586
  0.2489821455521761  0.5037640842911172  0.0046495783318507
  0.7529290145737851  0.0013377160290388  0.0011274426407131
  0.7546035709673619  0.5012853670363978  0.9968751596218105
  0.0056305211374911  0.2490181758222926  0.5017976035473358
  0.0019583276647432  0.7538360605532505  0.5022874230917063
  0.5041351716406957  0.2408319092508787  0.4971268888230211
  0.5063327645307920  0.7540401242418658  0.4983102923542981
  0.2566212882145708  0.0000942757522236  0.5000601656249344
  0.2508150782277797  0.5061732408237360  0.5015398374332130
  0.7539714764143264  0.0009683931839326  0.4998516283510040
  0.7536918486871294  0.4994364615281635  0.5030659315147051
  0.3911451552894283  0.4317745099998783  0.4739468376729272
  0.1522442514710887  0.1462650671287675  0.5462136812798328
  0.1498529703498964  0.6601275757713776  0.5410852711511303
  0.6569973460801624  0.1528248509891051  0.5412583910206752
  0.6515794899074486  0.6476395498390513  0.5376669497722293
  0.3556901843958303  0.3575116724555228  0.0328851998208020
  0.3549411175883923  0.8516838486581080  0.0380580722230873
  0.8513207522363629  0.3494219760046399  0.0375933268615437
  0.8520034691659211  0.8531294651333809  0.0421196784070678
  0.1482016717559073  0.1454351775080379  0.9586531706429703
  0.1507818427440028  0.6532060485466856  0.9634150956433231
  0.6520855268415995  0.1512693189050736  0.9613845448906231
  0.6532804111772970  0.6488790181319299  0.9628071110730549
  0.3266202556585081  0.2873212814044817  0.4782005494721046
  0.3522559792124629  0.8487522708400481  0.4604228071527502
  0.8566307413444019  0.3518373264836877  0.4660286766607998
  0.8510196793332191  0.8536860836224450  0.4591241506324132
  0.2187403930474518  0.0052510294824748  0.2498872979105121
  0.2092160455240766  0.5073016551867963  0.2513303485229915
  0.7136136799934706  0.0084709045547716  0.2507089478836459
  0.7246479445169984  0.5011225329255120  0.2500462687099494
  0.0374229122618374  0.2544017343302147  0.2507856146628815
  0.0362289269477667  0.7553231924087070  0.2505697628068734
  0.5380946376872232  0.2577681670831636  0.2501537484267191
  0.5458436244569341  0.7543623668698114  0.2489634387889922
  0.4016624116545882  0.1036389439816948  0.0357476073430002
  0.3984514392943295  0.6051876093640032  0.0390651836464547
  0.9017535970555942  0.1013240254246646  0.0417597872344559
  0.9038551955498705  0.6010858747598056  0.0370653261573217
  0.4218962010307095  0.0826831402471466  0.4724553242382485
  0.4034925432003676  0.6096605145448185  0.4527357452123756
  0.9039766110498522  0.1018637282533451  0.4620650687531212
  0.9037465798204144  0.6036365817074486  0.4660848660493225
  0.1079033054196942  0.3970997712460336  0.5404839957282995
  0.1052216663357155  0.9029818112470069  0.5361736525733363
  0.6078444347812494  0.3967251950157669  0.5373749895832673
  0.6060156728496648  0.9016423961965002  0.5428398404763800
  0.1014973763923476  0.3997034311885798  0.9658220758321081
  0.1042853264716595  0.8994309071888452  0.9612135797529491
  0.6036595613744896  0.4017601253257784  0.9564414507588321
  0.6039795144257351  0.8991229997226722  0.9610400517247879
  0.4650102592987984  0.2487235906719791  0.7502774395690420
  0.4679237582086517  0.7425033875352508  0.7490046525385247
  0.9649776207294604  0.2455606935277574  0.7512389204188854
  0.9617195950693500  0.7505120279909081  0.7510708938402478
  0.2792715332029783  0.5041674821194462  0.7531448201848372
  0.2941305994254467  0.9947274578513468  0.7503523478818410
  0.7968197641477542  0.4973993467793562  0.7504379451115725
  0.7905754185382163  0.9970184378821818  0.7511162158411608

  0.00000000E+00  0.00000000E+00  0.00000000E+00
  0.00000000E+00  0.00000000E+00  0.00000000E+00
  0.00000000E+00  0.00000000E+00  0.00000000E+00
  0.00000000E+00  0.00000000E+00  0.00000000E+00
  0.00000000E+00  0.00000000E+00  0.00000000E+00
  0.00000000E+00  0.00000000E+00  0.00000000E+00
  0.00000000E+00  0.00000000E+00  0.00000000E+00
  0.00000000E+00  0.00000000E+00  0.00000000E+00
  0.00000000E+00  0.00000000E+00  0.00000000E+00
  0.00000000E+00  0.00000000E+00  0.00000000E+00
  0.00000000E+00  0.00000000E+00  0.00000000E+00
  0.00000000E+00  0.00000000E+00  0.00000000E+00
  0.00000000E+00  0.00000000E+00  0.00000000E+00
  0.00000000E+00  0.00000000E+00  0.00000000E+00
  0.00000000E+00  0.00000000E+00  0.00000000E+00
  0.00000000E+00  0.00000000E+00  0.00000000E+00
  0.00000000E+00  0.00000000E+00  0.00000000E+00
  0.00000000E+00  0.00000000E+00  0.00000000E+00
  0.00000000E+00  0.00000000E+00  0.00000000E+00
  0.00000000E+00  0.00000000E+00  0.00000000E+00
  0.00000000E+00  0.00000000E+00  0.00000000E+00
  0.00000000E+00  0.00000000E+00  0.00000000E+00
  0.00000000E+00  0.00000000E+00  0.00000000E+00
  0.00000000E+00  0.00000000E+00  0.00000000E+00
  0.00000000E+00  0.00000000E+00  0.00000000E+00
  0.00000000E+00  0.00000000E+00  0.00000000E+00
  0.00000000E+00  0.00000000E+00  0.00000000E+00
  0.00000000E+00  0.00000000E+00  0.00000000E+00
  0.00000000E+00  0.00000000E+00  0.00000000E+00
  0.00000000E+00  0.00000000E+00  0.00000000E+00
  0.00000000E+00  0.00000000E+00  0.00000000E+00
  0.00000000E+00  0.00000000E+00  0.00000000E+00
  0.00000000E+00  0.00000000E+00  0.00000000E+00
  0.00000000E+00  0.00000000E+00  0.00000000E+00
  0.00000000E+00  0.00000000E+00  0.00000000E+00
  0.00000000E+00  0.00000000E+00  0.00000000E+00
  0.00000000E+00  0.00000000E+00  0.00000000E+00
  0.00000000E+00  0.00000000E+00  0.00000000E+00
  0.00000000E+00  0.00000000E+00  0.00000000E+00
  0.00000000E+00  0.00000000E+00  0.00000000E+00
  0.00000000E+00  0.00000000E+00  0.00000000E+00
  0.00000000E+00  0.00000000E+00  0.00000000E+00
  0.00000000E+00  0.00000000E+00  0.00000000E+00
  0.00000000E+00  0.00000000E+00  0.00000000E+00
  0.00000000E+00  0.00000000E+00  0.00000000E+00
  0.00000000E+00  0.00000000E+00  0.00000000E+00
  0.00000000E+00  0.00000000E+00  0.00000000E+00
  0.00000000E+00  0.00000000E+00  0.00000000E+00
  0.00000000E+00  0.00000000E+00  0.00000000E+00
  0.00000000E+00  0.00000000E+00  0.00000000E+00
  0.00000000E+00  0.00000000E+00  0.00000000E+00
  0.00000000E+00  0.00000000E+00  0.00000000E+00
  0.00000000E+00  0.00000000E+00  0.00000000E+00
  0.00000000E+00  0.00000000E+00  0.00000000E+00
  0.00000000E+00  0.00000000E+00  0.00000000E+00
  0.00000000E+00  0.00000000E+00  0.00000000E+00
  0.00000000E+00  0.00000000E+00  0.00000000E+00
  0.00000000E+00  0.00000000E+00  0.00000000E+00
  0.00000000E+00  0.00000000E+00  0.00000000E+00
  0.00000000E+00  0.00000000E+00  0.00000000E+00
  0.00000000E+00  0.00000000E+00  0.00000000E+00
  0.00000000E+00  0.00000000E+00  0.00000000E+00
  0.00000000E+00  0.00000000E+00  0.00000000E+00
  0.00000000E+00  0.00000000E+00  0.00000000E+00
  0.00000000E+00  0.00000000E+00  0.00000000E+00
  0.00000000E+00  0.00000000E+00  0.00000000E+00
  0.00000000E+00  0.00000000E+00  0.00000000E+00
  0.00000000E+00  0.00000000E+00  0.00000000E+00
  0.00000000E+00  0.00000000E+00  0.00000000E+00
  0.00000000E+00  0.00000000E+00  0.00000000E+00
  0.00000000E+00  0.00000000E+00  0.00000000E+00
  0.00000000E+00  0.00000000E+00  0.00000000E+00
  0.00000000E+00  0.00000000E+00  0.00000000E+00
  0.00000000E+00  0.00000000E+00  0.00000000E+00
  0.00000000E+00  0.00000000E+00  0.00000000E+00
  0.00000000E+00  0.00000000E+00  0.00000000E+00
  0.00000000E+00  0.00000000E+00  0.00000000E+00
  0.00000000E+00  0.00000000E+00  0.00000000E+00
  0.00000000E+00  0.00000000E+00  0.00000000E+00
  0.00000000E+00  0.00000000E+00  0.00000000E+00
  0.00000000E+00  0.00000000E+00  0.00000000E+00
