10.0% N(Distort)=1 ~[0.5,0.5,0.6]       
   1.0000000000000000     
    17.7788800000000009    0.0000000000000000    0.0000000000000000
     0.0000000000000000   17.9504599999999996    0.0000000000000000
     0.0000000000000000    0.0000000000000000   12.7661599999999993
   Cs   Pb   I    Br
    16    16    48     1
Direct
  0.2549572628813875  0.2229143921854914  0.2043150517020765
  0.2550706210931317  0.7227779435136529  0.2438042979561074
  0.7460629561037365  0.2298732283686698  0.2573628435744755
  0.7670033152668343  0.7190245958287684  0.2523863588044003
  0.0068990002538606  0.0313928862088277  0.7480556304758820
  0.0169134133203703  0.5399607132154655  0.7485036532490197
  0.5159164334822998  0.0383092007685180  0.7529037067980585
  0.5036371432127983  0.5224854145689581  0.7286820490073010
  0.2322407465549134  0.2909305499929654  0.7695982333921867
  0.2460663109309846  0.7818419909733818  0.7448278389895985
  0.7471592711730580  0.2818617907186918  0.7491866332145832
  0.7428813574542504  0.7861767878043082  0.7466459195838850
  0.5035539124261944  0.4840697065260618  0.2442077927103997
  0.4950504873075755  0.9663847903863672  0.2343463873051110
  0.9914226984213967  0.4709021466880939  0.2522088384490298
  0.9982890721825236  0.9775010074646999  0.2537302550343561
  0.9985716297555011  0.2524810659017907  0.0008504112805602
  0.9997003845307804  0.7560650367765038  0.9983839471929419
  0.5022247347862547  0.2562474668710342  0.9967941869890126
  0.5045689588897982  0.7506118202582104  0.9964394941465740
  0.2543029993391440  0.0001048280724338  0.9953829315905838
  0.2491232493023144  0.5076087489780722  0.0009244491442388
  0.7512644072023814  0.0044733574724929  0.0016206137486025
  0.7543670204238333  0.5031794430825915  0.9971504432129127
  0.0044007643286151  0.2557834437745176  0.4996031226186045
  0.0011491789448045  0.7569799075073680  0.4977219462812222
  0.4855542157391993  0.2479154489862549  0.4991986655918990
  0.5057960471735690  0.7557264284350313  0.4980831852919493
  0.2608558295629531  0.0009486742232214  0.4976710580271871
  0.2545413642110180  0.5079484232001312  0.4981129811513257
  0.7500399858057967  0.0087642081624549  0.5000160524246535
  0.7538316541717054  0.5009053686389032  0.5040825335737493
  0.1510944589612792  0.1470019517198135  0.5442775420960644
  0.1519976312382034  0.6539762652665585  0.5317672089310647
  0.6476520897972655  0.1554832423742147  0.5357275729771031
  0.6492976045552874  0.6474405476332834  0.5392618293386956
  0.3545792967776127  0.3618321968654201  0.0247818767534401
  0.3545744641364417  0.8527307018427560  0.0361092487953757
  0.8501429238402127  0.3504388269335557  0.0402015779207706
  0.8500207175041643  0.8554577036737445  0.0382800906037500
  0.1460995304864296  0.1454940829297329  0.9569436517479987
  0.1499740684545314  0.6563811635859914  0.9617340096810535
  0.6508587983583294  0.1551740023498712  0.9647939741605305
  0.6539197266319263  0.6510202162301330  0.9592369986957032
  0.3006143207927806  0.2705419707520338  0.4869464473078919
  0.3529341075745577  0.8518638797463337  0.4540773352351207
  0.8580330114386440  0.3549391086005664  0.4582537856393609
  0.8541751146634937  0.8590203639459100  0.4602283223588363
  0.2207568706591693  0.0097662071757733  0.2476062477906434
  0.2138235646441125  0.5044525963879228  0.2495604409308412
  0.7122614300530351  0.0127438978488886  0.2502533903014767
  0.7227078359608774  0.5039206891385177  0.2496048234546980
  0.0404498886454576  0.2551348238249820  0.2497749520148144
  0.0367642563828120  0.7619675730445646  0.2479073896469982
  0.5240784695656935  0.2640262742578488  0.2490244568768501
  0.5463811977090631  0.7546785175057154  0.2477829791554060
  0.4019648325015467  0.1051444838739216  0.0307478023237625
  0.3983764069395136  0.6071722366239185  0.0388761582856194
  0.9014997079922624  0.1029755658807856  0.0381991804173028
  0.9032727900230000  0.6040353302763198  0.0375473797622736
  0.4253818311985237  0.0807939449903717  0.4715220886877217
  0.3947826491288564  0.6189511086388391  0.4490106888440784
  0.9018136546350352  0.1075260309047961  0.4643473878565003
  0.9039271774500061  0.6083864144581264  0.4625195120001578
  0.1031205683006836  0.4056006102861903  0.5375300346378793
  0.1079126870236762  0.9044897424349527  0.5358509000570738
  0.6182234726457743  0.3914316198235125  0.5398190557783060
  0.6073474233153117  0.9015332086794526  0.5437566887232023
  0.0996710273304778  0.4039652314128652  0.9681697866998688
  0.1033393197474664  0.9020828270711341  0.9599984509058872
  0.6028526645550626  0.4044126871271240  0.9571528423887693
  0.6032111984029991  0.9013301045470453  0.9593196156096019
  0.4589224497053830  0.2518359059770238  0.7489258132842908
  0.4658859090007131  0.7421212835599342  0.7475415234956678
  0.9678638744098836  0.2492423322279772  0.7501505394101512
  0.9639522951042242  0.7534260429788624  0.7483531484838849
  0.2818005281505522  0.5064948732641711  0.7490771807464283
  0.2959642593374108  0.9937188867641638  0.7479701711102600
  0.7986124036745731  0.4961364904121108  0.7504398588168926
  0.7864385187324651  0.0034653538448783  0.7506030221567523
  0.4020420453826737  0.4149120286080047  0.4797158091618968

  0.00000000E+00  0.00000000E+00  0.00000000E+00
  0.00000000E+00  0.00000000E+00  0.00000000E+00
  0.00000000E+00  0.00000000E+00  0.00000000E+00
  0.00000000E+00  0.00000000E+00  0.00000000E+00
  0.00000000E+00  0.00000000E+00  0.00000000E+00
  0.00000000E+00  0.00000000E+00  0.00000000E+00
  0.00000000E+00  0.00000000E+00  0.00000000E+00
  0.00000000E+00  0.00000000E+00  0.00000000E+00
  0.00000000E+00  0.00000000E+00  0.00000000E+00
  0.00000000E+00  0.00000000E+00  0.00000000E+00
  0.00000000E+00  0.00000000E+00  0.00000000E+00
  0.00000000E+00  0.00000000E+00  0.00000000E+00
  0.00000000E+00  0.00000000E+00  0.00000000E+00
  0.00000000E+00  0.00000000E+00  0.00000000E+00
  0.00000000E+00  0.00000000E+00  0.00000000E+00
  0.00000000E+00  0.00000000E+00  0.00000000E+00
  0.00000000E+00  0.00000000E+00  0.00000000E+00
  0.00000000E+00  0.00000000E+00  0.00000000E+00
  0.00000000E+00  0.00000000E+00  0.00000000E+00
  0.00000000E+00  0.00000000E+00  0.00000000E+00
  0.00000000E+00  0.00000000E+00  0.00000000E+00
  0.00000000E+00  0.00000000E+00  0.00000000E+00
  0.00000000E+00  0.00000000E+00  0.00000000E+00
  0.00000000E+00  0.00000000E+00  0.00000000E+00
  0.00000000E+00  0.00000000E+00  0.00000000E+00
  0.00000000E+00  0.00000000E+00  0.00000000E+00
  0.00000000E+00  0.00000000E+00  0.00000000E+00
  0.00000000E+00  0.00000000E+00  0.00000000E+00
  0.00000000E+00  0.00000000E+00  0.00000000E+00
  0.00000000E+00  0.00000000E+00  0.00000000E+00
  0.00000000E+00  0.00000000E+00  0.00000000E+00
  0.00000000E+00  0.00000000E+00  0.00000000E+00
  0.00000000E+00  0.00000000E+00  0.00000000E+00
  0.00000000E+00  0.00000000E+00  0.00000000E+00
  0.00000000E+00  0.00000000E+00  0.00000000E+00
  0.00000000E+00  0.00000000E+00  0.00000000E+00
  0.00000000E+00  0.00000000E+00  0.00000000E+00
  0.00000000E+00  0.00000000E+00  0.00000000E+00
  0.00000000E+00  0.00000000E+00  0.00000000E+00
  0.00000000E+00  0.00000000E+00  0.00000000E+00
  0.00000000E+00  0.00000000E+00  0.00000000E+00
  0.00000000E+00  0.00000000E+00  0.00000000E+00
  0.00000000E+00  0.00000000E+00  0.00000000E+00
  0.00000000E+00  0.00000000E+00  0.00000000E+00
  0.00000000E+00  0.00000000E+00  0.00000000E+00
  0.00000000E+00  0.00000000E+00  0.00000000E+00
  0.00000000E+00  0.00000000E+00  0.00000000E+00
  0.00000000E+00  0.00000000E+00  0.00000000E+00
  0.00000000E+00  0.00000000E+00  0.00000000E+00
  0.00000000E+00  0.00000000E+00  0.00000000E+00
  0.00000000E+00  0.00000000E+00  0.00000000E+00
  0.00000000E+00  0.00000000E+00  0.00000000E+00
  0.00000000E+00  0.00000000E+00  0.00000000E+00
  0.00000000E+00  0.00000000E+00  0.00000000E+00
  0.00000000E+00  0.00000000E+00  0.00000000E+00
  0.00000000E+00  0.00000000E+00  0.00000000E+00
  0.00000000E+00  0.00000000E+00  0.00000000E+00
  0.00000000E+00  0.00000000E+00  0.00000000E+00
  0.00000000E+00  0.00000000E+00  0.00000000E+00
  0.00000000E+00  0.00000000E+00  0.00000000E+00
  0.00000000E+00  0.00000000E+00  0.00000000E+00
  0.00000000E+00  0.00000000E+00  0.00000000E+00
  0.00000000E+00  0.00000000E+00  0.00000000E+00
  0.00000000E+00  0.00000000E+00  0.00000000E+00
  0.00000000E+00  0.00000000E+00  0.00000000E+00
  0.00000000E+00  0.00000000E+00  0.00000000E+00
  0.00000000E+00  0.00000000E+00  0.00000000E+00
  0.00000000E+00  0.00000000E+00  0.00000000E+00
  0.00000000E+00  0.00000000E+00  0.00000000E+00
  0.00000000E+00  0.00000000E+00  0.00000000E+00
  0.00000000E+00  0.00000000E+00  0.00000000E+00
  0.00000000E+00  0.00000000E+00  0.00000000E+00
  0.00000000E+00  0.00000000E+00  0.00000000E+00
  0.00000000E+00  0.00000000E+00  0.00000000E+00
  0.00000000E+00  0.00000000E+00  0.00000000E+00
  0.00000000E+00  0.00000000E+00  0.00000000E+00
  0.00000000E+00  0.00000000E+00  0.00000000E+00
  0.00000000E+00  0.00000000E+00  0.00000000E+00
  0.00000000E+00  0.00000000E+00  0.00000000E+00
  0.00000000E+00  0.00000000E+00  0.00000000E+00
  0.00000000E+00  0.00000000E+00  0.00000000E+00
