50.0% N(Distort)=2 ~[0.5,0.5,0.6]       
   1.0000000000000000     
    17.7788800000000009    0.0000000000000000    0.0000000000000000
     0.0000000000000000   17.9504599999999996    0.0000000000000000
     0.0000000000000000    0.0000000000000000   12.7661599999999993
   Cs   Pb   I    O 
    16    16    48     1
Direct
  0.2663312550457415  0.2598307385358913  0.2941890463772552
  0.2636668117026534  0.7263800962196406  0.2505083925684353
  0.7620550203849987  0.2236234386302877  0.2494715335556328
  0.7604142183191793  0.7205464128973136  0.2468412024124444
  0.0144735840322048  0.0343431482692338  0.7503873634992625
  0.0176362413816010  0.5402613182425766  0.7405246902524845
  0.5112124674762722  0.0352828065416645  0.7531527545086018
  0.5078993330105224  0.5343694305074451  0.7469971600288637
  0.2361275251553437  0.2860377626497674  0.7674138753803790
  0.2457258093470958  0.7881867050036333  0.7453007345116761
  0.7515205279978313  0.2927513211634153  0.7597786152018451
  0.7468048504264065  0.7830171813495168  0.7486547089784865
  0.4764234278241579  0.4675807812774981  0.2638770278998813
  0.4932516351694983  0.9734951806422432  0.2468674868701330
  0.9895494328873454  0.4715926762349907  0.2484837526491628
  0.0053929912259424  0.9767409779439535  0.2444783352489666
  0.0031654369492621  0.2551739076361011  0.0000700435569034
  0.0041855258220369  0.7559470727077036  0.9983321260569755
  0.5037114251069760  0.2552604080566099  0.9955922458668121
  0.5032064881451604  0.7544796984571754  0.9993625182136909
  0.2560993135481826  0.0077728816005028  0.0020891120659742
  0.2543342924913326  0.5061866084088898  0.9862631230540885
  0.7541521301344460  0.0040947749906812 -0.0004533405955897
  0.7525043547805128  0.5060538875972869  0.0017261532910775
  0.0048647573396256  0.2527799414673320  0.4978323385044966
  0.0087360598608604  0.7556296462434278  0.4972294688415624
  0.5245061757375264  0.2434854745102352  0.4991551435251528
  0.5054298847183591  0.7562678311129049  0.4993863326495311
  0.2570217866720148  0.0078642917103704  0.4992633265003084
  0.2558239656776253  0.4978709587716618  0.4709841905086836
  0.7593783459212801 -0.0011609262393850  0.4976208798604621
  0.7563352854984917  0.5050748273294537  0.5000348678810405
  0.1575629225305964  0.1571506457873412  0.5422276393798067
  0.1511825266730815  0.6586094744185658  0.5352251454331685
  0.6699429899752191  0.1528591037353267  0.5526410132520871
  0.6518214352212319  0.6517013399402959  0.5379770822654254
  0.3516258296336386  0.3551804322160941  0.0378887195267126
  0.3544988542051162  0.8568654598951950  0.0386958395247555
  0.8537235108390504  0.3566366339830563  0.0393817903996070
  0.8556651223895546  0.8574952066055306  0.0423008182225670
  0.1468368926897703  0.1491756899883350  0.9611096695572612
  0.1532471572872468  0.6551310132987593  0.9543173233834195
  0.6529414995443654  0.1541654178234131  0.9588226908727959
  0.6524328461995773  0.6542032691634250  0.9617162723272610
  0.3782971190861432  0.3465232588138867  0.5368816019975776
  0.3557844779494432  0.8579881178972192  0.4611713169058292
  0.8566792558530359  0.3554920903578918  0.4608772981714073
  0.8529418001630562  0.8526650496193985  0.4555099013627843
  0.2246628002975790  0.0280246906171121  0.2511593558048910
  0.2069263759174748  0.5161838643749310  0.2379244704402092
  0.7133612713375852  0.0112454780870104  0.2507739963999804
  0.7112497262894972  0.5060537188850884  0.2504086554621171
  0.0439375121390234  0.2580679658488646  0.2494001492235595
  0.0443245408749514  0.7606897954665097  0.2473030609467204
  0.5378418353346867  0.2581528113411010  0.2523776913017429
  0.5406782637211655  0.7597177780310402  0.2500280047528561
  0.4080346322274358  0.1040776776516594  0.0282929941029936
  0.4029611551013323  0.6045264357929203  0.0378506974075835
  0.9005726010778132  0.1081087964149855  0.0411942953693707
  0.9016049335704636  0.6080750087031959  0.0399193017437378
  0.4132654733151792  0.1030809836125021  0.4702770022331368
  0.4013758039853708  0.6104533616798635  0.4650659988402443
  0.9077890737725726  0.1014233230344141  0.4592423058754305
  0.9052901767923430  0.6080638776870441  0.4595778034836785
  0.1074721516794657  0.3992990346504323  0.5308819217423991
  0.1065414485893838  0.9088066248594204  0.5300905363180582
  0.6124187152257465  0.4008042417680004  0.5436716405627707
  0.6062440153411618  0.9042444979471277  0.5402990430224782
  0.1013936672600894  0.4060692747068657  0.9606395138855228
  0.1066966727428826  0.9038223500334358  0.9660698985958317
  0.6049653443066423  0.4044033077946001  0.9578653353655968
  0.6052036518685133  0.9022852986430160  0.9618364995408640
  0.4644162201048396  0.2551190404210401  0.7507958796928653
  0.4664631794245490  0.7508240250019239  0.7502667510473253
  0.9690831736169393  0.2499382356096765  0.7495072852260571
  0.9679291340957448  0.7559966199993341  0.7480451195404770
  0.2855991305500973  0.5004079514615072  0.7438861421568692
  0.2901857821450390  0.0019952926713682  0.7506224297404782
  0.7953765887983972  0.5066021428373931  0.7501687417278481
  0.7954029921191026 -0.0043611954885383  0.7510697916096882
  0.3260477136784982  0.4035299457028582  0.4101380322449500

  0.00000000E+00  0.00000000E+00  0.00000000E+00
  0.00000000E+00  0.00000000E+00  0.00000000E+00
  0.00000000E+00  0.00000000E+00  0.00000000E+00
  0.00000000E+00  0.00000000E+00  0.00000000E+00
  0.00000000E+00  0.00000000E+00  0.00000000E+00
  0.00000000E+00  0.00000000E+00  0.00000000E+00
  0.00000000E+00  0.00000000E+00  0.00000000E+00
  0.00000000E+00  0.00000000E+00  0.00000000E+00
  0.00000000E+00  0.00000000E+00  0.00000000E+00
  0.00000000E+00  0.00000000E+00  0.00000000E+00
  0.00000000E+00  0.00000000E+00  0.00000000E+00
  0.00000000E+00  0.00000000E+00  0.00000000E+00
  0.00000000E+00  0.00000000E+00  0.00000000E+00
  0.00000000E+00  0.00000000E+00  0.00000000E+00
  0.00000000E+00  0.00000000E+00  0.00000000E+00
  0.00000000E+00  0.00000000E+00  0.00000000E+00
  0.00000000E+00  0.00000000E+00  0.00000000E+00
  0.00000000E+00  0.00000000E+00  0.00000000E+00
  0.00000000E+00  0.00000000E+00  0.00000000E+00
  0.00000000E+00  0.00000000E+00  0.00000000E+00
  0.00000000E+00  0.00000000E+00  0.00000000E+00
  0.00000000E+00  0.00000000E+00  0.00000000E+00
  0.00000000E+00  0.00000000E+00  0.00000000E+00
  0.00000000E+00  0.00000000E+00  0.00000000E+00
  0.00000000E+00  0.00000000E+00  0.00000000E+00
  0.00000000E+00  0.00000000E+00  0.00000000E+00
  0.00000000E+00  0.00000000E+00  0.00000000E+00
  0.00000000E+00  0.00000000E+00  0.00000000E+00
  0.00000000E+00  0.00000000E+00  0.00000000E+00
  0.00000000E+00  0.00000000E+00  0.00000000E+00
  0.00000000E+00  0.00000000E+00  0.00000000E+00
  0.00000000E+00  0.00000000E+00  0.00000000E+00
  0.00000000E+00  0.00000000E+00  0.00000000E+00
  0.00000000E+00  0.00000000E+00  0.00000000E+00
  0.00000000E+00  0.00000000E+00  0.00000000E+00
  0.00000000E+00  0.00000000E+00  0.00000000E+00
  0.00000000E+00  0.00000000E+00  0.00000000E+00
  0.00000000E+00  0.00000000E+00  0.00000000E+00
  0.00000000E+00  0.00000000E+00  0.00000000E+00
  0.00000000E+00  0.00000000E+00  0.00000000E+00
  0.00000000E+00  0.00000000E+00  0.00000000E+00
  0.00000000E+00  0.00000000E+00  0.00000000E+00
  0.00000000E+00  0.00000000E+00  0.00000000E+00
  0.00000000E+00  0.00000000E+00  0.00000000E+00
  0.00000000E+00  0.00000000E+00  0.00000000E+00
  0.00000000E+00  0.00000000E+00  0.00000000E+00
  0.00000000E+00  0.00000000E+00  0.00000000E+00
  0.00000000E+00  0.00000000E+00  0.00000000E+00
  0.00000000E+00  0.00000000E+00  0.00000000E+00
  0.00000000E+00  0.00000000E+00  0.00000000E+00
  0.00000000E+00  0.00000000E+00  0.00000000E+00
  0.00000000E+00  0.00000000E+00  0.00000000E+00
  0.00000000E+00  0.00000000E+00  0.00000000E+00
  0.00000000E+00  0.00000000E+00  0.00000000E+00
  0.00000000E+00  0.00000000E+00  0.00000000E+00
  0.00000000E+00  0.00000000E+00  0.00000000E+00
  0.00000000E+00  0.00000000E+00  0.00000000E+00
  0.00000000E+00  0.00000000E+00  0.00000000E+00
  0.00000000E+00  0.00000000E+00  0.00000000E+00
  0.00000000E+00  0.00000000E+00  0.00000000E+00
  0.00000000E+00  0.00000000E+00  0.00000000E+00
  0.00000000E+00  0.00000000E+00  0.00000000E+00
  0.00000000E+00  0.00000000E+00  0.00000000E+00
  0.00000000E+00  0.00000000E+00  0.00000000E+00
  0.00000000E+00  0.00000000E+00  0.00000000E+00
  0.00000000E+00  0.00000000E+00  0.00000000E+00
  0.00000000E+00  0.00000000E+00  0.00000000E+00
  0.00000000E+00  0.00000000E+00  0.00000000E+00
  0.00000000E+00  0.00000000E+00  0.00000000E+00
  0.00000000E+00  0.00000000E+00  0.00000000E+00
  0.00000000E+00  0.00000000E+00  0.00000000E+00
  0.00000000E+00  0.00000000E+00  0.00000000E+00
  0.00000000E+00  0.00000000E+00  0.00000000E+00
  0.00000000E+00  0.00000000E+00  0.00000000E+00
  0.00000000E+00  0.00000000E+00  0.00000000E+00
  0.00000000E+00  0.00000000E+00  0.00000000E+00
  0.00000000E+00  0.00000000E+00  0.00000000E+00
  0.00000000E+00  0.00000000E+00  0.00000000E+00
  0.00000000E+00  0.00000000E+00  0.00000000E+00
  0.00000000E+00  0.00000000E+00  0.00000000E+00
  0.00000000E+00  0.00000000E+00  0.00000000E+00
