-10.0% N(Distort)=1 ~[0.5,0.5,0.6]      
   1.0000000000000000     
    17.7788800000000009    0.0000000000000000    0.0000000000000000
     0.0000000000000000   17.9504599999999996    0.0000000000000000
     0.0000000000000000    0.0000000000000000   12.7661599999999993
   Cs   Pb   I    Cl
    16    16    48     1
Direct
  0.2622247490473376  0.2073450973652311  0.2171984230985598
  0.2453021101386270  0.7313669530393527  0.2496945745631357
  0.7395265256143657  0.2326677785956304  0.2654902437941344
  0.7703219689396793  0.7214696120700828  0.2542924287940356
  0.0043379599007438  0.0281039797953361  0.7480062028821458
  0.0165078783127398  0.5368463275054748  0.7475176358016877
  0.5133285853819837  0.0428134391634452  0.7422355674888752
  0.5095372500172520  0.5212561646359218  0.7361578534416379
  0.2269722000893819  0.2815743945981150  0.7662718306611095
  0.2476443873504494  0.7759121305221898  0.7364260594030986
  0.7553016500863313  0.2680404409214002  0.7562985174724309
  0.7382238929930721  0.7876802406626653  0.7420382729039239
  0.5026803481452395  0.5016789647191533  0.2481659514557732
  0.4932859379964242  0.9667780831610681  0.2441725970154965
  0.0009714208395650  0.4733700263529516  0.2553441040580498
  0.9927129110388121  0.9778239624981981  0.2585664989057712
  0.9998200956902794  0.2511370967487040  0.0059830403565996
  0.9994628855338130  0.7544552456020430  0.9968106039197301
  0.4982101158471067  0.2596566593317324  0.9995234405755853
  0.5056894621788632  0.7496213047618352  0.9950349483945861
  0.2553331590402763  0.9967914597504320  0.9951827870049283
  0.2491970878292543  0.5038898354863698  0.0020369189658009
  0.7482456620132562  0.0046008422013067  0.0022092656466843
  0.7557970568195780  0.5012430283072558  0.9997246952307945
  0.0092932520934573  0.2564365273940488  0.5007737945725407
  0.0049050980515830  0.7536216028785769  0.5035483437763753
  0.4715399214834873  0.2832068165758532  0.4999377046959395
  0.5032326081412619  0.7522040246029200  0.4958860538331327
  0.2599365457160168  0.0055557899029378  0.4981510631971683
  0.2815704171275419  0.4745286083392504  0.4959438812029059
  0.7485045912921865  0.0094101731261333  0.5002435124311582
  0.7577430476322632  0.4984704261223814  0.5049254036744575
  0.1402821710354903  0.1369639065787031  0.5512855442987068
  0.1426198309240341  0.6494765954999220  0.5313014813394190
  0.6464351062663186  0.1502821100536342  0.5329006538868605
  0.6453503707306965  0.6408766397193503  0.5374287516659432
  0.3454055356340766  0.3538792341883175  0.0276106605591669
  0.3555046855320727  0.8493538995854563  0.0362901464751822
  0.8511686189605450  0.3490299257161364  0.0460547710090919
  0.8496010668260379  0.8561154736606759  0.0336485844282071
  0.1457386007705022  0.1413093741596539  0.9656287813423813
  0.1492244986323003  0.6539566921707084  0.9608641629334526
  0.6465949525668669  0.1545109145711016  0.9713830631811234
  0.6556667804535279  0.6494454574804938  0.9575131916474321
  0.2949456729013387  0.2993147089662888  0.4781342964075403
  0.3586799577048457  0.8589817694800184  0.4549282719870463
  0.8639290164954140  0.3578843464493242  0.4523240939702240
  0.8540817421897949  0.8616661878847603  0.4687989539686110
  0.2171090847594056  0.9967578415471596  0.2471739775607165
  0.2237563392446022  0.5080927354829330  0.2460079296689869
  0.7119295905723890  0.0115866342281171  0.2498973671137497
  0.7215540168992171  0.5052316625996293  0.2519894169081234
  0.0467656938460588  0.2537306959684189  0.2524805735258485
  0.0272893447344915  0.7604730713756931  0.2487138073767421
  0.5184681960406603  0.2771531977130281  0.2499890868668029
  0.5468705938821696  0.7507492548470193  0.2449251740941102
  0.4028104556405886  0.1017222704816599  0.0296486382878763
  0.4012501119123189  0.6036049554559801  0.0211102686094730
  0.8996170046500416  0.1031668481322277  0.0367848930105710
  0.9032508417802585  0.6017503939467497  0.0390311111819575
  0.4061574146658194  0.1012806918452736  0.4581494253851912
  0.3783865142331322  0.6309700228897830  0.4492399244324449
  0.8943008962544665  0.1118575407166377  0.4636446873902508
  0.8999756443396416  0.6068585600758750  0.4646671870986355
  0.1005449763299655  0.4075492620744809  0.5315469668588377
  0.1073867164337949  0.8973714581490406  0.5369485730085009
  0.6352896110465518  0.3725513088027897  0.5469502820493951
  0.6044150204573201  0.9015412943014458  0.5367172527133854
  0.0988658401377236  0.4033282885351769  0.9693205168856348
  0.1046117285375426  0.8977583732379699  0.9564271816519027
  0.6022713263526360  0.4033026967152092  0.9631909625220390
  0.6007189063619098  0.9029102778851861  0.9567614302133517
  0.4544972077107911  0.2569952256357771  0.7489497944212794
  0.4687886734437675  0.7422384535044624  0.7450895907845412
  0.9744218466218246  0.2499973554327862  0.7536694079670772
  0.9593078689410276  0.7496692685687901  0.7498226989043475
  0.2843170023451622  0.4957894211888374  0.7414654883615563
  0.2959738104786926  0.9915020379060906  0.7473484368746081
  0.7984704114349532  0.4888145199019002  0.7527219932886634
  0.7825283120668366  0.0068683212838821  0.7508634424652061
  0.4408104249379586  0.4389762954543653  0.4975883199452019

  0.00000000E+00  0.00000000E+00  0.00000000E+00
  0.00000000E+00  0.00000000E+00  0.00000000E+00
  0.00000000E+00  0.00000000E+00  0.00000000E+00
  0.00000000E+00  0.00000000E+00  0.00000000E+00
  0.00000000E+00  0.00000000E+00  0.00000000E+00
  0.00000000E+00  0.00000000E+00  0.00000000E+00
  0.00000000E+00  0.00000000E+00  0.00000000E+00
  0.00000000E+00  0.00000000E+00  0.00000000E+00
  0.00000000E+00  0.00000000E+00  0.00000000E+00
  0.00000000E+00  0.00000000E+00  0.00000000E+00
  0.00000000E+00  0.00000000E+00  0.00000000E+00
  0.00000000E+00  0.00000000E+00  0.00000000E+00
  0.00000000E+00  0.00000000E+00  0.00000000E+00
  0.00000000E+00  0.00000000E+00  0.00000000E+00
  0.00000000E+00  0.00000000E+00  0.00000000E+00
  0.00000000E+00  0.00000000E+00  0.00000000E+00
  0.00000000E+00  0.00000000E+00  0.00000000E+00
  0.00000000E+00  0.00000000E+00  0.00000000E+00
  0.00000000E+00  0.00000000E+00  0.00000000E+00
  0.00000000E+00  0.00000000E+00  0.00000000E+00
  0.00000000E+00  0.00000000E+00  0.00000000E+00
  0.00000000E+00  0.00000000E+00  0.00000000E+00
  0.00000000E+00  0.00000000E+00  0.00000000E+00
  0.00000000E+00  0.00000000E+00  0.00000000E+00
  0.00000000E+00  0.00000000E+00  0.00000000E+00
  0.00000000E+00  0.00000000E+00  0.00000000E+00
  0.00000000E+00  0.00000000E+00  0.00000000E+00
  0.00000000E+00  0.00000000E+00  0.00000000E+00
  0.00000000E+00  0.00000000E+00  0.00000000E+00
  0.00000000E+00  0.00000000E+00  0.00000000E+00
  0.00000000E+00  0.00000000E+00  0.00000000E+00
  0.00000000E+00  0.00000000E+00  0.00000000E+00
  0.00000000E+00  0.00000000E+00  0.00000000E+00
  0.00000000E+00  0.00000000E+00  0.00000000E+00
  0.00000000E+00  0.00000000E+00  0.00000000E+00
  0.00000000E+00  0.00000000E+00  0.00000000E+00
  0.00000000E+00  0.00000000E+00  0.00000000E+00
  0.00000000E+00  0.00000000E+00  0.00000000E+00
  0.00000000E+00  0.00000000E+00  0.00000000E+00
  0.00000000E+00  0.00000000E+00  0.00000000E+00
  0.00000000E+00  0.00000000E+00  0.00000000E+00
  0.00000000E+00  0.00000000E+00  0.00000000E+00
  0.00000000E+00  0.00000000E+00  0.00000000E+00
  0.00000000E+00  0.00000000E+00  0.00000000E+00
  0.00000000E+00  0.00000000E+00  0.00000000E+00
  0.00000000E+00  0.00000000E+00  0.00000000E+00
  0.00000000E+00  0.00000000E+00  0.00000000E+00
  0.00000000E+00  0.00000000E+00  0.00000000E+00
  0.00000000E+00  0.00000000E+00  0.00000000E+00
  0.00000000E+00  0.00000000E+00  0.00000000E+00
  0.00000000E+00  0.00000000E+00  0.00000000E+00
  0.00000000E+00  0.00000000E+00  0.00000000E+00
  0.00000000E+00  0.00000000E+00  0.00000000E+00
  0.00000000E+00  0.00000000E+00  0.00000000E+00
  0.00000000E+00  0.00000000E+00  0.00000000E+00
  0.00000000E+00  0.00000000E+00  0.00000000E+00
  0.00000000E+00  0.00000000E+00  0.00000000E+00
  0.00000000E+00  0.00000000E+00  0.00000000E+00
  0.00000000E+00  0.00000000E+00  0.00000000E+00
  0.00000000E+00  0.00000000E+00  0.00000000E+00
  0.00000000E+00  0.00000000E+00  0.00000000E+00
  0.00000000E+00  0.00000000E+00  0.00000000E+00
  0.00000000E+00  0.00000000E+00  0.00000000E+00
  0.00000000E+00  0.00000000E+00  0.00000000E+00
  0.00000000E+00  0.00000000E+00  0.00000000E+00
  0.00000000E+00  0.00000000E+00  0.00000000E+00
  0.00000000E+00  0.00000000E+00  0.00000000E+00
  0.00000000E+00  0.00000000E+00  0.00000000E+00
  0.00000000E+00  0.00000000E+00  0.00000000E+00
  0.00000000E+00  0.00000000E+00  0.00000000E+00
  0.00000000E+00  0.00000000E+00  0.00000000E+00
  0.00000000E+00  0.00000000E+00  0.00000000E+00
  0.00000000E+00  0.00000000E+00  0.00000000E+00
  0.00000000E+00  0.00000000E+00  0.00000000E+00
  0.00000000E+00  0.00000000E+00  0.00000000E+00
  0.00000000E+00  0.00000000E+00  0.00000000E+00
  0.00000000E+00  0.00000000E+00  0.00000000E+00
  0.00000000E+00  0.00000000E+00  0.00000000E+00
  0.00000000E+00  0.00000000E+00  0.00000000E+00
  0.00000000E+00  0.00000000E+00  0.00000000E+00
  0.00000000E+00  0.00000000E+00  0.00000000E+00
