Unperturbed N(Distort)=3 ~[0.5,0.5,0.6] 
   1.0000000000000000     
    17.7788800000000009    0.0000000000000000    0.0000000000000000
     0.0000000000000000   17.9504599999999996    0.0000000000000000
     0.0000000000000000    0.0000000000000000   12.7661599999999993
   Cs   Pb   I    N 
    16    16    48     1
Direct
  0.2567141903870529  0.2099553239847619  0.2449105697893595
  0.2422511566171106  0.7343883397831674  0.2247872483629388
  0.7577582057175888  0.2148830639507109  0.2492048949965048
  0.7682087883133178  0.7141484047897286  0.2495366853633278
  0.0126916528562562  0.0275430514804640  0.7492383422463479
  0.0057109094149667  0.5274038888067251  0.7526841766928322
  0.5064063993196142  0.0359278866219287  0.7590188490059533
  0.5178380637753215  0.5304596740659708  0.7614130732373777
  0.2396837461067387  0.2835840028922886  0.7491957869260607
  0.2441224039885733  0.7756505566627301  0.7441321193575451
  0.7416966931504301  0.2787693658784441  0.7544700960386596
  0.7413239763031073  0.7856494592083609  0.7502864630725365
  0.4822947979158425  0.4713892746194788  0.2763306507943733
  0.4949774747493104  0.9698137690733190  0.2440994261287188
  0.0004639867243357  0.4677612491260242  0.2577335701400905
  0.9912409609185725  0.9625048651653371  0.2482213747715658
  0.0023326356875917  0.2494209801900672  0.0034157508900884
  0.9988403814034972  0.7463057213351101  0.9979508601463120
  0.4998666984171314  0.2513417630441401  0.0037982007251158
  0.5058369385323570  0.7488285232742038  0.9982805323972967
  0.2509223319012323  0.9980801135199585  0.9980300062179690
  0.2556637725263673  0.5005523811744240  0.9975047731565796
  0.7527725542437353  0.0005807952936169  0.9998091764730994
  0.7520814229199237  0.4970472111761952  0.0039120923130569
  0.9993007986720449  0.2493746530231348  0.5052702285777819
  0.0014838499522973  0.7441346991064139  0.5054959600203940
  0.5023348252177559  0.2461651841228435  0.5029657842365183
  0.5179853852438220  0.7618680765907516  0.4995934101030590
  0.2507245941725739  0.9987338999104766  0.5001919285105518
  0.2605264700638257  0.4889473756345875  0.4946309767914636
  0.7573294483069738  0.0004483319868891  0.4989360618092431
  0.7503360761300046  0.4944365290558045  0.4994889029424487
  0.1502012919723504  0.1450677030879219  0.5392334248206709
  0.1401706412241191  0.6405390406044577  0.5452913882347803
  0.6513601039075200  0.1501406579163489  0.5400454847784403
  0.6495387972581619  0.6454975649054844  0.5436143271246685
  0.3520563386928815  0.3512854950975151  0.0459499291823224
  0.3579817185358246  0.8534613308362724  0.0319686915782805
  0.8535714458007216  0.3501213310580908  0.0439449930092701
  0.8520511383938220  0.8495942613559870  0.0358902189159175
  0.1503545215744744  0.1464078295198297  0.9602862519708774
  0.1504298842002520  0.6473005143205763  0.9579063062615029
  0.6490652431255944  0.1473068294821159  0.9664082486281516
  0.6550172316178543  0.6491005252779858  0.9624441393963926
  0.3424333627581431  0.3351353268575941  0.4640229238275779
  0.3567954319854809  0.8502893200553193  0.4562074596596955
  0.8465918652881300  0.3450594397352758  0.4631290264871065
  0.8471102767968575  0.8482935249311668  0.4676265923295839
  0.2131187517123926  0.9945864267557827  0.2486325347567957
  0.2194994014177508  0.5130339266534830  0.2470391374832183
  0.7141173317461330  0.0004095905290824  0.2501314083660811
  0.7078867056197583  0.5030072377557098  0.2527622430363816
  0.0397160631248267  0.2533966858955520  0.2516322803591561
  0.0271112168456639  0.7476125161367646  0.2510888024583402
  0.5377253303812647  0.2552604317417880  0.2536693081156666
  0.5492212334042900  0.7574381160262725  0.2515697181886833
  0.3980623783582901  0.1013272947923432  0.0385595735251458
  0.4035932391598173  0.6025778000526547  0.0448328081901038
  0.9017261217667504  0.1007124351144055  0.0431713219229636
  0.9031661097087857  0.5954276575530173  0.0403600551757447
  0.4017437192426459  0.0959369730229977  0.4618339084115110
  0.3669253962399436  0.6535761764486122  0.4655175023555617
  0.9027966106294800  0.0945650357775151  0.4547060276343908
  0.8973697905968300  0.5966942127249649  0.4633961078957985
  0.0907624517314111  0.3924013428395059  0.5435775760324002
  0.1039128488539558  0.8927400743986941  0.5375054448463161
  0.5968058270158988  0.3984325320063968  0.5415510335874296
  0.6018259221060701  0.9091875900068727  0.5500492994491045
  0.1059732349731597  0.3973537712455063  0.9618611354014391
  0.1038657502770756  0.8932443835137976  0.9629651333072572
  0.6043308625942022  0.3952297500292789  0.9649560948080521
  0.6039456952317567  0.8992537898311233  0.9583506977969941
  0.4616110907234670  0.2480338310158738  0.7537518173811205
  0.4674466243132486  0.7437695614127414  0.7499326430615304
  0.9604601517082023  0.2396373484318703  0.7533590911774787
  0.9579930112112698  0.7429563519992158  0.7519247075541462
  0.2989909029021991  0.4975725424673103  0.7480015728164250
  0.2883485336129733  0.9911218921766358  0.7485936223910971
  0.7853004988534749  0.4925674951297671  0.7526089258078159
  0.7925667889489535  0.9998759680950344  0.7510561245950920
  0.3792795222066516  0.5419571488293274  0.4543679636703415

  0.00000000E+00  0.00000000E+00  0.00000000E+00
  0.00000000E+00  0.00000000E+00  0.00000000E+00
  0.00000000E+00  0.00000000E+00  0.00000000E+00
  0.00000000E+00  0.00000000E+00  0.00000000E+00
  0.00000000E+00  0.00000000E+00  0.00000000E+00
  0.00000000E+00  0.00000000E+00  0.00000000E+00
  0.00000000E+00  0.00000000E+00  0.00000000E+00
  0.00000000E+00  0.00000000E+00  0.00000000E+00
  0.00000000E+00  0.00000000E+00  0.00000000E+00
  0.00000000E+00  0.00000000E+00  0.00000000E+00
  0.00000000E+00  0.00000000E+00  0.00000000E+00
  0.00000000E+00  0.00000000E+00  0.00000000E+00
  0.00000000E+00  0.00000000E+00  0.00000000E+00
  0.00000000E+00  0.00000000E+00  0.00000000E+00
  0.00000000E+00  0.00000000E+00  0.00000000E+00
  0.00000000E+00  0.00000000E+00  0.00000000E+00
  0.00000000E+00  0.00000000E+00  0.00000000E+00
  0.00000000E+00  0.00000000E+00  0.00000000E+00
  0.00000000E+00  0.00000000E+00  0.00000000E+00
  0.00000000E+00  0.00000000E+00  0.00000000E+00
  0.00000000E+00  0.00000000E+00  0.00000000E+00
  0.00000000E+00  0.00000000E+00  0.00000000E+00
  0.00000000E+00  0.00000000E+00  0.00000000E+00
  0.00000000E+00  0.00000000E+00  0.00000000E+00
  0.00000000E+00  0.00000000E+00  0.00000000E+00
  0.00000000E+00  0.00000000E+00  0.00000000E+00
  0.00000000E+00  0.00000000E+00  0.00000000E+00
  0.00000000E+00  0.00000000E+00  0.00000000E+00
  0.00000000E+00  0.00000000E+00  0.00000000E+00
  0.00000000E+00  0.00000000E+00  0.00000000E+00
  0.00000000E+00  0.00000000E+00  0.00000000E+00
  0.00000000E+00  0.00000000E+00  0.00000000E+00
  0.00000000E+00  0.00000000E+00  0.00000000E+00
  0.00000000E+00  0.00000000E+00  0.00000000E+00
  0.00000000E+00  0.00000000E+00  0.00000000E+00
  0.00000000E+00  0.00000000E+00  0.00000000E+00
  0.00000000E+00  0.00000000E+00  0.00000000E+00
  0.00000000E+00  0.00000000E+00  0.00000000E+00
  0.00000000E+00  0.00000000E+00  0.00000000E+00
  0.00000000E+00  0.00000000E+00  0.00000000E+00
  0.00000000E+00  0.00000000E+00  0.00000000E+00
  0.00000000E+00  0.00000000E+00  0.00000000E+00
  0.00000000E+00  0.00000000E+00  0.00000000E+00
  0.00000000E+00  0.00000000E+00  0.00000000E+00
  0.00000000E+00  0.00000000E+00  0.00000000E+00
  0.00000000E+00  0.00000000E+00  0.00000000E+00
  0.00000000E+00  0.00000000E+00  0.00000000E+00
  0.00000000E+00  0.00000000E+00  0.00000000E+00
  0.00000000E+00  0.00000000E+00  0.00000000E+00
  0.00000000E+00  0.00000000E+00  0.00000000E+00
  0.00000000E+00  0.00000000E+00  0.00000000E+00
  0.00000000E+00  0.00000000E+00  0.00000000E+00
  0.00000000E+00  0.00000000E+00  0.00000000E+00
  0.00000000E+00  0.00000000E+00  0.00000000E+00
  0.00000000E+00  0.00000000E+00  0.00000000E+00
  0.00000000E+00  0.00000000E+00  0.00000000E+00
  0.00000000E+00  0.00000000E+00  0.00000000E+00
  0.00000000E+00  0.00000000E+00  0.00000000E+00
  0.00000000E+00  0.00000000E+00  0.00000000E+00
  0.00000000E+00  0.00000000E+00  0.00000000E+00
  0.00000000E+00  0.00000000E+00  0.00000000E+00
  0.00000000E+00  0.00000000E+00  0.00000000E+00
  0.00000000E+00  0.00000000E+00  0.00000000E+00
  0.00000000E+00  0.00000000E+00  0.00000000E+00
  0.00000000E+00  0.00000000E+00  0.00000000E+00
  0.00000000E+00  0.00000000E+00  0.00000000E+00
  0.00000000E+00  0.00000000E+00  0.00000000E+00
  0.00000000E+00  0.00000000E+00  0.00000000E+00
  0.00000000E+00  0.00000000E+00  0.00000000E+00
  0.00000000E+00  0.00000000E+00  0.00000000E+00
  0.00000000E+00  0.00000000E+00  0.00000000E+00
  0.00000000E+00  0.00000000E+00  0.00000000E+00
  0.00000000E+00  0.00000000E+00  0.00000000E+00
  0.00000000E+00  0.00000000E+00  0.00000000E+00
  0.00000000E+00  0.00000000E+00  0.00000000E+00
  0.00000000E+00  0.00000000E+00  0.00000000E+00
  0.00000000E+00  0.00000000E+00  0.00000000E+00
  0.00000000E+00  0.00000000E+00  0.00000000E+00
  0.00000000E+00  0.00000000E+00  0.00000000E+00
  0.00000000E+00  0.00000000E+00  0.00000000E+00
  0.00000000E+00  0.00000000E+00  0.00000000E+00
