10.0% N(Distort)=3 ~[0.5,0.5,0.6]       
   1.0000000000000000     
    17.7788800000000009    0.0000000000000000    0.0000000000000000
     0.0000000000000000   17.9504599999999996    0.0000000000000000
     0.0000000000000000    0.0000000000000000   12.7661599999999993
   Cs   As   Pb   I 
    16     1    16    48
Direct
  0.2579932828351651  0.2127113031537439  0.2290509154162193
  0.2627896244906296  0.7249138069316390  0.2497294193065112
  0.7624935364924614  0.2192507281324944  0.2535235000532047
  0.7574353262200046  0.7191106128524993  0.2473647273313481
  0.0116978214646488  0.0367652497985175  0.7481215844986170
  0.0121867746594109  0.5413240781767943  0.7567617935392698
  0.5156656806843208  0.0365310044224084  0.7455784076368487
  0.5034983828123911  0.5332358036925186  0.7420182198941452
  0.2406868285388745  0.2820470745194492  0.7648348055687375
  0.2457196684425980  0.7906113820687870  0.7515998200433301
  0.7513829600481662  0.2884762882975926  0.7610674802680533
  0.7404617476724998  0.7791031091121893  0.7444649743216420
  0.4969211513029208  0.4793133187314006  0.2365914191901760
  0.4947757411880551  0.9710422869739622  0.2489260310455673
  0.9922829805487419  0.4721354583741609  0.2481483875260916
  0.9921066696193080  0.9685452495884667  0.2473892373900318
  0.4425740527895882  0.3833784402956537  0.5171872272513629
  0.0000318407035954  0.2536420865458056  0.0022494942867064
  0.0016329928128236  0.7546217675375444 -0.0000596269119252
  0.5024254563630832  0.2538393949132993  0.9908534742555529
  0.5022022970238393  0.7538899628419952  0.9963754296807252
  0.2531223799602940  0.0022193564417095  0.9961678387289365
  0.2496631793642609  0.5046698353352167  0.9987266663668236
  0.7518615405807841  0.0021262669378507  0.0028016126989768
  0.7518287397061316  0.5041360966532851  0.9991953956175776
  0.0018212000001923  0.2547948761658259  0.4996306785301862
  0.0004308233401700  0.7562972338428030  0.4990963878660555
  0.5137871919043643  0.2424361747852647  0.4880390512489284
  0.5001083097197705  0.7534929307531578  0.4969783077304237
  0.2500370553190748  0.0057988648143422  0.4964962266133947
  0.2401130059759812  0.5102058242901398  0.5006705094914644
  0.7583032101115962  0.0019725601889875  0.5064616216360949
  0.7568325584709283  0.5052946226738256  0.5005352688791741
  0.1515431730109324  0.1549788123872696  0.5407677714983998
  0.1528805750900729  0.6600724140385598  0.5455400614099466
  0.6742805721602383  0.1480292909592352  0.5575142272544774
  0.6476466461634021  0.6483974702373385  0.5337171844287653
  0.3533705702085640  0.3565702113719190  0.0383995021564660
  0.3530758392573530  0.8544480146208947  0.0347654578448379
  0.8515712770351729  0.3540946792428893  0.0405105831457219
  0.8529468423727093  0.8544864407041851  0.0451665294314590
  0.1480342177348890  0.1491359510521333  0.9653153263975388
  0.1512848633234189  0.6541051731429020  0.9574831854837230
  0.6507609930012672  0.1512021295560531  0.9570929144857431
  0.6508046705779703  0.6516799683179064  0.9624324924302260
  0.3008252169577523  0.3396537695816544  0.4717469265575336
  0.3536082425070396  0.8576842329479856  0.4614642126317782
  0.8507399616219566  0.3523493607719940  0.4625673309014914
  0.8535684122022893  0.8487247904595868  0.4513533689609775
  0.2126051023918683  0.0008705345292617  0.2467377193384007
  0.2116298621944424  0.5128721537104397  0.2489352915758842
  0.7145875428484303  0.0083635402468303  0.2508032505131341
  0.7159912512592267  0.5045411662829438  0.2497110688620386
  0.0406137899487296  0.2585875739293824  0.2508175269233032
  0.0430690483042697  0.7556849294619150  0.2487217026061090
  0.5439903226375585  0.2650502061434146  0.2430756213016876
  0.5371176691344579  0.7559634669038977  0.2465812031205157
  0.4020884585857354  0.1044462665452990  0.0364284343717288
  0.3991187379523669  0.6061514479312401  0.0305393949849276
  0.9001857356558509  0.1051592024276671  0.0395053142765649
  0.9006205109358343  0.6056098568185970  0.0391118292855261
  0.3936979961688701  0.1097230202054410  0.4457236971118256
  0.3978629931098579  0.6060641186227891  0.4570186639273451
  0.9092513924372584  0.1013445792636103  0.4618824733878650
  0.9026538102800354  0.6050411708292117  0.4583718176650182
  0.0868249695187054  0.4160492215695918  0.5326062558913750
  0.1012090625460495  0.9042564983134960  0.5382311422355279
  0.6140136697169002  0.3951122203850916  0.5498828144266996
  0.6044674985267700  0.9020285324863270  0.5348261300857161
  0.1010397311582230  0.4027086667814153  0.9642447360723913
  0.1035271084002182  0.9021327365620655  0.9565815564654377
  0.6024173092857085  0.4040358708501329  0.9540107685912567
  0.6024735243076667  0.9022387085784064  0.9596098551281023
  0.4627033586274791  0.2497884751147819  0.7455731788469476
  0.4650844213217407  0.7491489385038780  0.7468548319561842
  0.9689057476481148  0.2512547769739908  0.7513194636414338
  0.9612229288694689  0.7528064952438054  0.7495851529105065
  0.2836120718528278  0.4962083541351410  0.7489376426970338
  0.2923266137981087  0.0043899760836793  0.7470114554750972
  0.7935086236053721  0.5043636602902338  0.7501182738755219
  0.7971055685460608  0.9872350122106442  0.7529200857238620

  0.00000000E+00  0.00000000E+00  0.00000000E+00
  0.00000000E+00  0.00000000E+00  0.00000000E+00
  0.00000000E+00  0.00000000E+00  0.00000000E+00
  0.00000000E+00  0.00000000E+00  0.00000000E+00
  0.00000000E+00  0.00000000E+00  0.00000000E+00
  0.00000000E+00  0.00000000E+00  0.00000000E+00
  0.00000000E+00  0.00000000E+00  0.00000000E+00
  0.00000000E+00  0.00000000E+00  0.00000000E+00
  0.00000000E+00  0.00000000E+00  0.00000000E+00
  0.00000000E+00  0.00000000E+00  0.00000000E+00
  0.00000000E+00  0.00000000E+00  0.00000000E+00
  0.00000000E+00  0.00000000E+00  0.00000000E+00
  0.00000000E+00  0.00000000E+00  0.00000000E+00
  0.00000000E+00  0.00000000E+00  0.00000000E+00
  0.00000000E+00  0.00000000E+00  0.00000000E+00
  0.00000000E+00  0.00000000E+00  0.00000000E+00
  0.00000000E+00  0.00000000E+00  0.00000000E+00
  0.00000000E+00  0.00000000E+00  0.00000000E+00
  0.00000000E+00  0.00000000E+00  0.00000000E+00
  0.00000000E+00  0.00000000E+00  0.00000000E+00
  0.00000000E+00  0.00000000E+00  0.00000000E+00
  0.00000000E+00  0.00000000E+00  0.00000000E+00
  0.00000000E+00  0.00000000E+00  0.00000000E+00
  0.00000000E+00  0.00000000E+00  0.00000000E+00
  0.00000000E+00  0.00000000E+00  0.00000000E+00
  0.00000000E+00  0.00000000E+00  0.00000000E+00
  0.00000000E+00  0.00000000E+00  0.00000000E+00
  0.00000000E+00  0.00000000E+00  0.00000000E+00
  0.00000000E+00  0.00000000E+00  0.00000000E+00
  0.00000000E+00  0.00000000E+00  0.00000000E+00
  0.00000000E+00  0.00000000E+00  0.00000000E+00
  0.00000000E+00  0.00000000E+00  0.00000000E+00
  0.00000000E+00  0.00000000E+00  0.00000000E+00
  0.00000000E+00  0.00000000E+00  0.00000000E+00
  0.00000000E+00  0.00000000E+00  0.00000000E+00
  0.00000000E+00  0.00000000E+00  0.00000000E+00
  0.00000000E+00  0.00000000E+00  0.00000000E+00
  0.00000000E+00  0.00000000E+00  0.00000000E+00
  0.00000000E+00  0.00000000E+00  0.00000000E+00
  0.00000000E+00  0.00000000E+00  0.00000000E+00
  0.00000000E+00  0.00000000E+00  0.00000000E+00
  0.00000000E+00  0.00000000E+00  0.00000000E+00
  0.00000000E+00  0.00000000E+00  0.00000000E+00
  0.00000000E+00  0.00000000E+00  0.00000000E+00
  0.00000000E+00  0.00000000E+00  0.00000000E+00
  0.00000000E+00  0.00000000E+00  0.00000000E+00
  0.00000000E+00  0.00000000E+00  0.00000000E+00
  0.00000000E+00  0.00000000E+00  0.00000000E+00
  0.00000000E+00  0.00000000E+00  0.00000000E+00
  0.00000000E+00  0.00000000E+00  0.00000000E+00
  0.00000000E+00  0.00000000E+00  0.00000000E+00
  0.00000000E+00  0.00000000E+00  0.00000000E+00
  0.00000000E+00  0.00000000E+00  0.00000000E+00
  0.00000000E+00  0.00000000E+00  0.00000000E+00
  0.00000000E+00  0.00000000E+00  0.00000000E+00
  0.00000000E+00  0.00000000E+00  0.00000000E+00
  0.00000000E+00  0.00000000E+00  0.00000000E+00
  0.00000000E+00  0.00000000E+00  0.00000000E+00
  0.00000000E+00  0.00000000E+00  0.00000000E+00
  0.00000000E+00  0.00000000E+00  0.00000000E+00
  0.00000000E+00  0.00000000E+00  0.00000000E+00
  0.00000000E+00  0.00000000E+00  0.00000000E+00
  0.00000000E+00  0.00000000E+00  0.00000000E+00
  0.00000000E+00  0.00000000E+00  0.00000000E+00
  0.00000000E+00  0.00000000E+00  0.00000000E+00
  0.00000000E+00  0.00000000E+00  0.00000000E+00
  0.00000000E+00  0.00000000E+00  0.00000000E+00
  0.00000000E+00  0.00000000E+00  0.00000000E+00
  0.00000000E+00  0.00000000E+00  0.00000000E+00
  0.00000000E+00  0.00000000E+00  0.00000000E+00
  0.00000000E+00  0.00000000E+00  0.00000000E+00
  0.00000000E+00  0.00000000E+00  0.00000000E+00
  0.00000000E+00  0.00000000E+00  0.00000000E+00
  0.00000000E+00  0.00000000E+00  0.00000000E+00
  0.00000000E+00  0.00000000E+00  0.00000000E+00
  0.00000000E+00  0.00000000E+00  0.00000000E+00
  0.00000000E+00  0.00000000E+00  0.00000000E+00
  0.00000000E+00  0.00000000E+00  0.00000000E+00
  0.00000000E+00  0.00000000E+00  0.00000000E+00
  0.00000000E+00  0.00000000E+00  0.00000000E+00
  0.00000000E+00  0.00000000E+00  0.00000000E+00
