10.0% N(Distort)=3 ~[0.5,0.5,0.6]       
   1.0000000000000000     
    17.7788800000000009    0.0000000000000000    0.0000000000000000
     0.0000000000000000   17.9504599999999996    0.0000000000000000
     0.0000000000000000    0.0000000000000000   12.7661599999999993
   Cs   P    Pb   I 
    16     1    16    48
Direct
  0.2591298839189187  0.2107000548744885  0.2285727968066504
  0.2627441160064522  0.7261923155715239  0.2495336854810598
  0.7594905126552242  0.2196572014352178  0.2537136058484854
  0.7584716484161983  0.7185099238099639  0.2468788864241209
  0.0124340492565142  0.0362729793788652  0.7476552277380001
  0.0123754733127944  0.5405323792072350  0.7564695265896840
  0.5153022551655817  0.0390910191688420  0.7443889408896601
  0.5018994834765972  0.5291445496696838  0.7372178338805256
  0.2382068351913783  0.2822912992641354  0.7685304007337634
  0.2468717546470422  0.7907347386090977  0.7516288549092289
  0.7506409965406333  0.2875139788976990  0.7577217718331057
  0.7401103498456005  0.7802590163166135  0.7446130530660230
  0.4983316022913614  0.4796429388874480  0.2418688243785331
  0.4945562484673931  0.9716886362407651  0.2491950679126780
  0.9920745174317922  0.4714796916150708  0.2484888405930528
  0.9927703999973548  0.9687661079772856  0.2467975235743999
  0.4342288311575498  0.3821839148878477  0.5095307752739777
  0.9995907271582913  0.2533862017389547  0.0029125181932713
  0.0015328484430408  0.7545173407593695  0.9994131094918378
  0.5022942237974470  0.2551547202124128  0.9929350792471621
  0.5030997028631925  0.7529817150007532  0.9964096975197632
  0.2536434463347844  0.0015952496667231  0.9963941936681635
  0.2498193186416776  0.5053370198668503  0.0006107339653143
  0.7512129404240637  0.0022387487163682  0.0025204817120579
  0.7523012212691933  0.5038157766532847  0.9983955954397234
  0.0023908880163744  0.2542984568883210  0.4994012701264853
  0.9999020107647654  0.7565541029861634  0.4987005305058433
  0.5112933439309627  0.2486527588940753  0.4930527415310668
  0.5015298083945487  0.7537551945334094  0.4976642654694807
  0.2516221272944103  0.0059981653813871  0.4969070164368162
  0.2408731328079118  0.5123992049993695  0.5020162771031300
  0.7580417377269731  0.0027949771561051  0.5062822772683285
  0.7570112158509851  0.5041453083713415  0.5000917501409767
  0.1531137946386969  0.1559868881148956  0.5399704564110653
  0.1533606807690894  0.6598632652223250  0.5459425776745289
  0.6721513181540886  0.1479973831492590  0.5526962114504169
  0.6486020932304126  0.6482201892523618  0.5331600689175123
  0.3527124019503382  0.3567664984796682  0.0402763111276328
  0.3538541175597195  0.8540380672014535  0.0337670231202676
  0.8510701675060323  0.3531122533002400  0.0403659244904049
  0.8527993544706256  0.8547122335329204  0.0440520002409041
  0.1474281199550789  0.1479070826385950  0.9669133996732204
  0.1515699653521894  0.6544915608088213  0.9574269539304464
  0.6502558910147870  0.1518423164220403  0.9572348778708660
  0.6522059283486284  0.6518461404374233  0.9627599710242832
  0.3019993847509929  0.3383047356065494  0.4734959820948317
  0.3546890280800831  0.8579658325345025  0.4623998194470600
  0.8518912316529391  0.3520758872745754  0.4610119817835630
  0.8537404398544404  0.8490065838524992  0.4508980368514491
  0.2139213548743475  0.9993905609150451  0.2468476347059568
  0.2115927951836415  0.5133486885388299  0.2502377502199276
  0.7143182074160720  0.0078030953911073  0.2503125124861486
  0.7173900363399608  0.5039901925452417  0.2490085310487231
  0.0420088949491039  0.2582105818517873  0.2510542654154659
  0.0426338589896772  0.7556277266185467  0.2484107599316947
  0.5406205298485670  0.2645430903989078  0.2442810014905196
  0.5382420789172190  0.7568082552569892  0.2468694995128258
  0.4022218895779480  0.1044680299647465  0.0352663489118051
  0.3998181544652443  0.6055419601528513  0.0332195710581753
  0.8995228602958838  0.1053136645949997  0.0404628693920266
  0.9013831315494781  0.6048637846332013  0.0382832073176587
  0.3947516116376794  0.1100213565204953  0.4479404946503536
  0.3973624781514412  0.6077439973897848  0.4569830195817879
  0.9094662655195782  0.1013117175360008  0.4617938858795760
  0.9034380418339903  0.6045994978017150  0.4589376809798082
  0.0892300436969990  0.4145467396493028  0.5332160846517381
  0.1021249483338813  0.9037839734975586  0.5378990887787516
  0.6130340789732127  0.3963561312908331  0.5449689574744915
  0.6049679305642929  0.9022564022085382  0.5367475423083224
  0.1008397387199291  0.4029517555786984  0.9661341131179979
  0.1038252121372533  0.9017299620780483  0.9564790630517583
  0.6022386253411937  0.4043448046632029  0.9541215177170702
  0.6022041774544856  0.9023297245547058  0.9572246763685938
  0.4607307182103321  0.2526902281377023  0.7462786509497755
  0.4656198348993706  0.7459845268452518  0.7471203550442052
  0.9694589683290702  0.2509433930262900  0.7515295238379975
  0.9610269416725724  0.7523489607909004  0.7492652744906776
  0.2827372419522405  0.4959592367199570  0.7498020198644488
  0.2924612665234262  0.0046343146446062  0.7471607339099140
  0.7938447614654363  0.5027660910865175  0.7495555907827759
  0.7970642693572521  0.9891420868232998  0.7523947405024978

  0.00000000E+00  0.00000000E+00  0.00000000E+00
  0.00000000E+00  0.00000000E+00  0.00000000E+00
  0.00000000E+00  0.00000000E+00  0.00000000E+00
  0.00000000E+00  0.00000000E+00  0.00000000E+00
  0.00000000E+00  0.00000000E+00  0.00000000E+00
  0.00000000E+00  0.00000000E+00  0.00000000E+00
  0.00000000E+00  0.00000000E+00  0.00000000E+00
  0.00000000E+00  0.00000000E+00  0.00000000E+00
  0.00000000E+00  0.00000000E+00  0.00000000E+00
  0.00000000E+00  0.00000000E+00  0.00000000E+00
  0.00000000E+00  0.00000000E+00  0.00000000E+00
  0.00000000E+00  0.00000000E+00  0.00000000E+00
  0.00000000E+00  0.00000000E+00  0.00000000E+00
  0.00000000E+00  0.00000000E+00  0.00000000E+00
  0.00000000E+00  0.00000000E+00  0.00000000E+00
  0.00000000E+00  0.00000000E+00  0.00000000E+00
  0.00000000E+00  0.00000000E+00  0.00000000E+00
  0.00000000E+00  0.00000000E+00  0.00000000E+00
  0.00000000E+00  0.00000000E+00  0.00000000E+00
  0.00000000E+00  0.00000000E+00  0.00000000E+00
  0.00000000E+00  0.00000000E+00  0.00000000E+00
  0.00000000E+00  0.00000000E+00  0.00000000E+00
  0.00000000E+00  0.00000000E+00  0.00000000E+00
  0.00000000E+00  0.00000000E+00  0.00000000E+00
  0.00000000E+00  0.00000000E+00  0.00000000E+00
  0.00000000E+00  0.00000000E+00  0.00000000E+00
  0.00000000E+00  0.00000000E+00  0.00000000E+00
  0.00000000E+00  0.00000000E+00  0.00000000E+00
  0.00000000E+00  0.00000000E+00  0.00000000E+00
  0.00000000E+00  0.00000000E+00  0.00000000E+00
  0.00000000E+00  0.00000000E+00  0.00000000E+00
  0.00000000E+00  0.00000000E+00  0.00000000E+00
  0.00000000E+00  0.00000000E+00  0.00000000E+00
  0.00000000E+00  0.00000000E+00  0.00000000E+00
  0.00000000E+00  0.00000000E+00  0.00000000E+00
  0.00000000E+00  0.00000000E+00  0.00000000E+00
  0.00000000E+00  0.00000000E+00  0.00000000E+00
  0.00000000E+00  0.00000000E+00  0.00000000E+00
  0.00000000E+00  0.00000000E+00  0.00000000E+00
  0.00000000E+00  0.00000000E+00  0.00000000E+00
  0.00000000E+00  0.00000000E+00  0.00000000E+00
  0.00000000E+00  0.00000000E+00  0.00000000E+00
  0.00000000E+00  0.00000000E+00  0.00000000E+00
  0.00000000E+00  0.00000000E+00  0.00000000E+00
  0.00000000E+00  0.00000000E+00  0.00000000E+00
  0.00000000E+00  0.00000000E+00  0.00000000E+00
  0.00000000E+00  0.00000000E+00  0.00000000E+00
  0.00000000E+00  0.00000000E+00  0.00000000E+00
  0.00000000E+00  0.00000000E+00  0.00000000E+00
  0.00000000E+00  0.00000000E+00  0.00000000E+00
  0.00000000E+00  0.00000000E+00  0.00000000E+00
  0.00000000E+00  0.00000000E+00  0.00000000E+00
  0.00000000E+00  0.00000000E+00  0.00000000E+00
  0.00000000E+00  0.00000000E+00  0.00000000E+00
  0.00000000E+00  0.00000000E+00  0.00000000E+00
  0.00000000E+00  0.00000000E+00  0.00000000E+00
  0.00000000E+00  0.00000000E+00  0.00000000E+00
  0.00000000E+00  0.00000000E+00  0.00000000E+00
  0.00000000E+00  0.00000000E+00  0.00000000E+00
  0.00000000E+00  0.00000000E+00  0.00000000E+00
  0.00000000E+00  0.00000000E+00  0.00000000E+00
  0.00000000E+00  0.00000000E+00  0.00000000E+00
  0.00000000E+00  0.00000000E+00  0.00000000E+00
  0.00000000E+00  0.00000000E+00  0.00000000E+00
  0.00000000E+00  0.00000000E+00  0.00000000E+00
  0.00000000E+00  0.00000000E+00  0.00000000E+00
  0.00000000E+00  0.00000000E+00  0.00000000E+00
  0.00000000E+00  0.00000000E+00  0.00000000E+00
  0.00000000E+00  0.00000000E+00  0.00000000E+00
  0.00000000E+00  0.00000000E+00  0.00000000E+00
  0.00000000E+00  0.00000000E+00  0.00000000E+00
  0.00000000E+00  0.00000000E+00  0.00000000E+00
  0.00000000E+00  0.00000000E+00  0.00000000E+00
  0.00000000E+00  0.00000000E+00  0.00000000E+00
  0.00000000E+00  0.00000000E+00  0.00000000E+00
  0.00000000E+00  0.00000000E+00  0.00000000E+00
  0.00000000E+00  0.00000000E+00  0.00000000E+00
  0.00000000E+00  0.00000000E+00  0.00000000E+00
  0.00000000E+00  0.00000000E+00  0.00000000E+00
  0.00000000E+00  0.00000000E+00  0.00000000E+00
  0.00000000E+00  0.00000000E+00  0.00000000E+00
